!- Windows Line endings 

VERSION,
    23.2.0;                   !- Version Identifier

SIMULATIONCONTROL,
    Yes,                      !- Do Zone Sizing Calculation
    Yes,                      !- Do System Sizing Calculation
    No,                       !- Do Plant Sizing Calculation
    No,                       !- Run Simulation for Sizing Periods
    Yes,                      !- Run Simulation for Weather File Run Periods
    No,                       !- Do HVAC Sizing Simulation for Sizing Periods
    1;                        !- Maximum Number of HVAC Sizing Simulation Passes

BUILDING,
    shang4hai3shi4_Residential_3_2_8_2005,    !- Name
    0,                        !- North Axis
    City,                     !- Terrain
    0.04,                     !- Loads Convergence Tolerance Value
    0.4,                      !- Temperature Convergence Tolerance Value
    FullExterior,             !- Solar Distribution
    25,                       !- Maximum Number of Warmup Days
    1;                        !- Minimum Number of Warmup Days

SHADOWCALCULATION,
    PolygonClipping,          !- Shading Calculation Method
    Periodic,                 !- Shading Calculation Update Frequency Method
    20,                       !- Shading Calculation Update Frequency
    15000,                    !- Maximum Figures in Shadow Overlap Calculations
    SutherlandHodgman,        !- Polygon Clipping Algorithm
    512,                      !- Pixel Counting Resolution
    SimpleSkyDiffuseModeling,    !- Sky Diffuse Modeling Algorithm
    No,                       !- Output External Shading Calculation Results
    No,                       !- Disable SelfShading Within Shading Zone Groups
    No;                       !- Disable SelfShading From Shading Zone Groups to Other Zones

HEATBALANCEALGORITHM,
    ConductionTransferFunction,    !- Algorithm
    200,                      !- Surface Temperature Upper Limit
    ,                         !- Minimum Surface Convection Heat Transfer Coefficient Value
    ;                         !- Maximum Surface Convection Heat Transfer Coefficient Value

TIMESTEP,
    1;                        !- Number of Timesteps per Hour

CONVERGENCELIMITS,
    1,                        !- Minimum System Timestep
    20,                       !- Maximum HVAC Iterations
    2,                        !- Minimum Plant Iterations
    8;                        !- Maximum Plant Iterations

RUNPERIOD,
    Run_Period_1,             !- Name
    1,                        !- Begin Month
    1,                        !- Begin Day of Month
    ,                         !- Begin Year
    12,                       !- End Month
    31,                       !- End Day of Month
    ,                         !- End Year
    ,                         !- Day of Week for Start Day
    Yes,                      !- Use Weather File Holidays and Special Days
    Yes,                      !- Use Weather File Daylight Saving Period
    No,                       !- Apply Weekend Holiday Rule
    Yes,                      !- Use Weather File Rain Indicators
    Yes,                      !- Use Weather File Snow Indicators
    ,                         !- Treat Weather as Actual
    ;                         !- First Hour Interpolation Starting Values

SCHEDULETYPELIMITS,
    Fraction,                 !- Name
    0,                        !- Lower Limit Value
    1,                        !- Upper Limit Value
    Continuous,               !- Numeric Type
    ;                         !- Unit Type

SCHEDULETYPELIMITS,
    Temperature,              !- Name
    ,                         !- Lower Limit Value
    ,                         !- Upper Limit Value
    Continuous,               !- Numeric Type
    Temperature;              !- Unit Type

SCHEDULETYPELIMITS,
    Any Number,               !- Name
    ,                         !- Lower Limit Value
    ,                         !- Upper Limit Value
    Continuous,               !- Numeric Type
    Dimensionless;            !- Unit Type

SCHEDULETYPELIMITS,
    On/Off,                   !- Name
    ,                         !- Lower Limit Value
    ,                         !- Upper Limit Value
    ,                         !- Numeric Type
    Dimensionless;            !- Unit Type

SCHEDULE:COMPACT,
    People_Schedule,          !- Name
    Fraction,                 !- Schedule Type Limits Name
    Through: 12/31,           !- Field 1
    For: Weekdays,            !- Field 2
    Until: 06:00,             !- Field 3
    0.98,                     !- Field 4
    Until: 07:00,             !- Field 5
    0.85,                     !- Field 6
    Until: 08:00,             !- Field 7
    0.65,                     !- Field 8
    Until: 17:00,             !- Field 9
    0.1,                      !- Field 10
    Until: 19:00,             !- Field 11
    0.75,                     !- Field 12
    Until: 22:00,             !- Field 13
    0.9,                      !- Field 14
    Until: 24:00,             !- Field 15
    0.95,                     !- Field 16
    For: AllOtherDays,        !- Field 17
    Until: 09:00,             !- Field 18
    0.95,                     !- Field 19
    Until: 18:00,             !- Field 20
    0.6,                      !- Field 21
    Until: 24:00,             !- Field 22
    0.9;                      !- Field 23

SCHEDULE:COMPACT,
    Lights_Schedule,          !- Name
    Fraction,                 !- Schedule Type Limits Name
    Through: 12/31,           !- Field 1
    For: AllDays,             !- Field 2
    Until: 19:00,             !- Field 3
    0,                        !- Field 4
    Until: 24:00,             !- Field 5
    1;                        !- Field 6

SCHEDULE:COMPACT,
    ElectricEquipment_Schedule,    !- Name
    Fraction,                 !- Schedule Type Limits Name
    Through: 12/31,           !- Field 1
    For: AllDays,             !- Field 2
    Until: 12:00,             !- Field 3
    0.23,                     !- Field 4
    Until: 14:00,             !- Field 5
    0.69,                     !- Field 6
    Until: 20:00,             !- Field 7
    0.23,                     !- Field 8
    Until: 24:00,             !- Field 9
    1;                        !- Field 10

SCHEDULE:COMPACT,
    Heating_SP_Schedule,      !- Name
    Temperature,              !- Schedule Type Limits Name
    Through: 12/31,           !- Field 1
    For: Weekdays,            !- Field 2
    Until: 07:00,             !- Field 3
    18,                       !- Field 4
    Until: 08:00,             !- Field 5
    12,                       !- Field 6
    Until: 19:00,             !- Field 7
    18,                       !- Field 8
    Until: 22:00,             !- Field 9
    18,                       !- Field 10
    Until: 24:00,             !- Field 11
    18,                       !- Field 12
    For: AllOtherDays,        !- Field 13
    Until: 24:00,             !- Field 14
    5;                        !- Field 15

SCHEDULE:COMPACT,
    Cooling_SP_Schedule,      !- Name
    Temperature,              !- Schedule Type Limits Name
    Through: 12/31,           !- Field 1
    For: Weekdays,            !- Field 2
    Until: 07:00,             !- Field 3
    28,                       !- Field 4
    Until: 08:00,             !- Field 5
    37,                       !- Field 6
    Until: 19:00,             !- Field 7
    37,                       !- Field 8
    Until: 24:00,             !- Field 9
    28,                       !- Field 10
    For: AllOtherDays,        !- Field 11
    Until: 24:00,             !- Field 12
    28;                       !- Field 13

SCHEDULE:COMPACT,
    Heating_Period_Schedule,    !- Name
    On/Off,                   !- Schedule Type Limits Name
    Through: 04/15,           !- Field 1
    For: AllDays,             !- Field 2
    Until: 24:00,             !- Field 3
    1,                        !- Field 4
    Through: 11/01,           !- Field 5
    For: AllDays,             !- Field 6
    Until: 24:00,             !- Field 7
    0,                        !- Field 8
    Through: 12/31,           !- Field 9
    For: AllDays,             !- Field 10
    Until: 24:00,             !- Field 11
    1;                        !- Field 12

SCHEDULE:COMPACT,
    Cooling_Period_Schedule,    !- Name
    On/Off,                   !- Schedule Type Limits Name
    Through: 04/15,           !- Field 1
    For: AllDays,             !- Field 2
    Until: 24:00,             !- Field 3
    0,                        !- Field 4
    Through: 10/31,           !- Field 5
    For: AllDays,             !- Field 6
    Until: 24:00,             !- Field 7
    1,                        !- Field 8
    Through: 12/31,           !- Field 9
    For: AllDays,             !- Field 10
    Until: 24:00,             !- Field 11
    0;                        !- Field 12

SCHEDULE:COMPACT,
    HVAC_ConditionedTime_Schedule,    !- Name
    On/Off,                   !- Schedule Type Limits Name
    Through: 12/31,           !- Field 1
    For: Weekdays,            !- Field 2
    Until: 07:00,             !- Field 3
    1,                        !- Field 4
    Until: 19:00,             !- Field 5
    0,                        !- Field 6
    Until: 24:00,             !- Field 7
    1,                        !- Field 8
    For: AllOtherDays,        !- Field 9
    Until: 24:00,             !- Field 10
    1;                        !- Field 11

SCHEDULE:COMPACT,
    AirEx_ConditionedTime_Schedule,    !- Name
    Any Number,               !- Schedule Type Limits Name
    Through: 12/31,           !- Field 1
    For: Weekdays,            !- Field 2
    Until: 08:00,             !- Field 3
    0.5,                      !- Field 4
    Until: 17:00,             !- Field 5
    0,                        !- Field 6
    Until: 24:00,             !- Field 7
    0.5,                      !- Field 8
    For: AllOtherDays,        !- Field 9
    Until: 24:00,             !- Field 10
    0.5;                      !- Field 11

SCHEDULE:COMPACT,
    CN_GenericActivityLevel,    !- Name
    Any Number,               !- Schedule Type Limits Name
    Through: 12/31,           !- Field 1
    For: Weekdays,            !- Field 2
    Until: 08:00,             !- Field 3
    80,                       !- Field 4
    Until: 18:00,             !- Field 5
    120,                      !- Field 6
    Until: 24:00,             !- Field 7
    80,                       !- Field 8
    For: AllOtherDays,        !- Field 9
    Until: 24:00,             !- Field 10
    80;                       !- Field 11

Material,
    Concrete,                 !- Name
    MediumRough,              !- Roughness
    0.1,                      !- Thickness
    1.7,                      !- Conductivity
    2240,                     !- Density
    900,                      !- Specific Heat
    0.9,                      !- Thermal Absorptance
    0.7,                      !- Solar Absorptance
    0.7;                      !- Visible Absorptance

Material,
    Brick,                    !- Name
    MediumRough,              !- Roughness
    0.1,                      !- Thickness
    0.72,                     !- Conductivity
    1920,                     !- Density
    840,                      !- Specific Heat
    0.9,                      !- Thermal Absorptance
    0.7,                      !- Solar Absorptance
    0.7;                      !- Visible Absorptance

Material,
    Tile,                     !- Name
    Smooth,                   !- Roughness
    0.02,                     !- Thickness
    1.3,                      !- Conductivity
    2200,                     !- Density
    900,                      !- Specific Heat
    0.9,                      !- Thermal Absorptance
    0.7,                      !- Solar Absorptance
    0.7;                      !- Visible Absorptance

Material,
    Gypsum,                   !- Name
    Smooth,                   !- Roughness
    0.015,                    !- Thickness
    0.16,                     !- Conductivity
    800,                      !- Density
    1090,                     !- Specific Heat
    0.9,                      !- Thermal Absorptance
    0.7,                      !- Solar Absorptance
    0.7;                      !- Visible Absorptance

Material,
    AsphaltFelt,              !- Name
    Smooth,                   !- Roughness
    0.01,                     !- Thickness
    0.2,                      !- Conductivity
    960,                      !- Density
    1000,                     !- Specific Heat
    0.9,                      !- Thermal Absorptance
    0.7,                      !- Solar Absorptance
    0.7;                      !- Visible Absorptance

MATERIAL,
    Insulation 0.003,         !- Name
    Rough,                    !- Roughness
    0.003,                    !- Thickness
    0.04,                     !- Conductivity
    40,                       !- Density
    1500,                     !- Specific Heat
    0.9,                      !- Thermal Absorptance
    0.7,                      !- Solar Absorptance
    0.7;                      !- Visible Absorptance

MATERIAL,
    Insulation 0.004,         !- Name
    Rough,                    !- Roughness
    0.004,                    !- Thickness
    0.04,                     !- Conductivity
    40,                       !- Density
    1500,                     !- Specific Heat
    0.9,                      !- Thermal Absorptance
    0.7,                      !- Solar Absorptance
    0.7;                      !- Visible Absorptance

MATERIAL,
    Insulation 0.007,         !- Name
    Rough,                    !- Roughness
    0.007,                    !- Thickness
    0.04,                     !- Conductivity
    40,                       !- Density
    1500,                     !- Specific Heat
    0.9,                      !- Thermal Absorptance
    0.7,                      !- Solar Absorptance
    0.7;                      !- Visible Absorptance

MATERIAL,
    Insulation 0.011,         !- Name
    Rough,                    !- Roughness
    0.011,                    !- Thickness
    0.04,                     !- Conductivity
    40,                       !- Density
    1500,                     !- Specific Heat
    0.9,                      !- Thermal Absorptance
    0.7,                      !- Solar Absorptance
    0.7;                      !- Visible Absorptance

MATERIAL,
    Insulation 0.012,         !- Name
    Rough,                    !- Roughness
    0.012,                    !- Thickness
    0.04,                     !- Conductivity
    40,                       !- Density
    1500,                     !- Specific Heat
    0.9,                      !- Thermal Absorptance
    0.7,                      !- Solar Absorptance
    0.7;                      !- Visible Absorptance

MATERIAL,
    Insulation 0.013,         !- Name
    Rough,                    !- Roughness
    0.013,                    !- Thickness
    0.04,                     !- Conductivity
    40,                       !- Density
    1500,                     !- Specific Heat
    0.9,                      !- Thermal Absorptance
    0.7,                      !- Solar Absorptance
    0.7;                      !- Visible Absorptance

MATERIAL,
    Insulation 0.014,         !- Name
    Rough,                    !- Roughness
    0.014,                    !- Thickness
    0.04,                     !- Conductivity
    40,                       !- Density
    1500,                     !- Specific Heat
    0.9,                      !- Thermal Absorptance
    0.7,                      !- Solar Absorptance
    0.7;                      !- Visible Absorptance

MATERIAL,
    Insulation 0.016,         !- Name
    Rough,                    !- Roughness
    0.016,                    !- Thickness
    0.04,                     !- Conductivity
    40,                       !- Density
    1500,                     !- Specific Heat
    0.9,                      !- Thermal Absorptance
    0.7,                      !- Solar Absorptance
    0.7;                      !- Visible Absorptance

MATERIAL,
    Insulation 0.017,         !- Name
    Rough,                    !- Roughness
    0.017,                    !- Thickness
    0.04,                     !- Conductivity
    40,                       !- Density
    1500,                     !- Specific Heat
    0.9,                      !- Thermal Absorptance
    0.7,                      !- Solar Absorptance
    0.7;                      !- Visible Absorptance

MATERIAL,
    Insulation 0.018,         !- Name
    Rough,                    !- Roughness
    0.018,                    !- Thickness
    0.04,                     !- Conductivity
    40,                       !- Density
    1500,                     !- Specific Heat
    0.9,                      !- Thermal Absorptance
    0.7,                      !- Solar Absorptance
    0.7;                      !- Visible Absorptance

MATERIAL,
    Insulation 0.021,         !- Name
    Rough,                    !- Roughness
    0.021,                    !- Thickness
    0.04,                     !- Conductivity
    40,                       !- Density
    1500,                     !- Specific Heat
    0.9,                      !- Thermal Absorptance
    0.7,                      !- Solar Absorptance
    0.7;                      !- Visible Absorptance

MATERIAL,
    Insulation 0.022,         !- Name
    Rough,                    !- Roughness
    0.022,                    !- Thickness
    0.04,                     !- Conductivity
    40,                       !- Density
    1500,                     !- Specific Heat
    0.9,                      !- Thermal Absorptance
    0.7,                      !- Solar Absorptance
    0.7;                      !- Visible Absorptance

MATERIAL,
    Insulation 0.024,         !- Name
    Rough,                    !- Roughness
    0.024,                    !- Thickness
    0.04,                     !- Conductivity
    40,                       !- Density
    1500,                     !- Specific Heat
    0.9,                      !- Thermal Absorptance
    0.7,                      !- Solar Absorptance
    0.7;                      !- Visible Absorptance

MATERIAL,
    Insulation 0.027,         !- Name
    Rough,                    !- Roughness
    0.027,                    !- Thickness
    0.04,                     !- Conductivity
    40,                       !- Density
    1500,                     !- Specific Heat
    0.9,                      !- Thermal Absorptance
    0.7,                      !- Solar Absorptance
    0.7;                      !- Visible Absorptance

MATERIAL,
    Insulation 0.028,         !- Name
    Rough,                    !- Roughness
    0.028,                    !- Thickness
    0.04,                     !- Conductivity
    40,                       !- Density
    1500,                     !- Specific Heat
    0.9,                      !- Thermal Absorptance
    0.7,                      !- Solar Absorptance
    0.7;                      !- Visible Absorptance

MATERIAL,
    Insulation 0.029,         !- Name
    Rough,                    !- Roughness
    0.029,                    !- Thickness
    0.04,                     !- Conductivity
    40,                       !- Density
    1500,                     !- Specific Heat
    0.9,                      !- Thermal Absorptance
    0.7,                      !- Solar Absorptance
    0.7;                      !- Visible Absorptance

MATERIAL,
    Insulation 0.032,         !- Name
    Rough,                    !- Roughness
    0.032,                    !- Thickness
    0.04,                     !- Conductivity
    40,                       !- Density
    1500,                     !- Specific Heat
    0.9,                      !- Thermal Absorptance
    0.7,                      !- Solar Absorptance
    0.7;                      !- Visible Absorptance

MATERIAL,
    Insulation 0.036,         !- Name
    Rough,                    !- Roughness
    0.036,                    !- Thickness
    0.04,                     !- Conductivity
    40,                       !- Density
    1500,                     !- Specific Heat
    0.9,                      !- Thermal Absorptance
    0.7,                      !- Solar Absorptance
    0.7;                      !- Visible Absorptance

MATERIAL,
    Insulation 0.038,         !- Name
    Rough,                    !- Roughness
    0.038,                    !- Thickness
    0.04,                     !- Conductivity
    40,                       !- Density
    1500,                     !- Specific Heat
    0.9,                      !- Thermal Absorptance
    0.7,                      !- Solar Absorptance
    0.7;                      !- Visible Absorptance

MATERIAL,
    Insulation 0.040,         !- Name
    Rough,                    !- Roughness
    0.04,                     !- Thickness
    0.04,                     !- Conductivity
    40,                       !- Density
    1500,                     !- Specific Heat
    0.9,                      !- Thermal Absorptance
    0.7,                      !- Solar Absorptance
    0.7;                      !- Visible Absorptance

MATERIAL,
    Insulation 0.043,         !- Name
    Rough,                    !- Roughness
    0.043,                    !- Thickness
    0.04,                     !- Conductivity
    40,                       !- Density
    1500,                     !- Specific Heat
    0.9,                      !- Thermal Absorptance
    0.7,                      !- Solar Absorptance
    0.7;                      !- Visible Absorptance

MATERIAL,
    Insulation 0.046,         !- Name
    Rough,                    !- Roughness
    0.046,                    !- Thickness
    0.04,                     !- Conductivity
    40,                       !- Density
    1500,                     !- Specific Heat
    0.9,                      !- Thermal Absorptance
    0.7,                      !- Solar Absorptance
    0.7;                      !- Visible Absorptance

MATERIAL,
    Insulation 0.048,         !- Name
    Rough,                    !- Roughness
    0.048,                    !- Thickness
    0.04,                     !- Conductivity
    40,                       !- Density
    1500,                     !- Specific Heat
    0.9,                      !- Thermal Absorptance
    0.7,                      !- Solar Absorptance
    0.7;                      !- Visible Absorptance

MATERIAL,
    Insulation 0.057,         !- Name
    Rough,                    !- Roughness
    0.057,                    !- Thickness
    0.04,                     !- Conductivity
    40,                       !- Density
    1500,                     !- Specific Heat
    0.9,                      !- Thermal Absorptance
    0.7,                      !- Solar Absorptance
    0.7;                      !- Visible Absorptance

MATERIAL,
    Insulation 0.069,         !- Name
    Rough,                    !- Roughness
    0.069,                    !- Thickness
    0.04,                     !- Conductivity
    40,                       !- Density
    1500,                     !- Specific Heat
    0.9,                      !- Thermal Absorptance
    0.7,                      !- Solar Absorptance
    0.7;                      !- Visible Absorptance

MATERIAL,
    Insulation 0.077,         !- Name
    Rough,                    !- Roughness
    0.077,                    !- Thickness
    0.04,                     !- Conductivity
    40,                       !- Density
    1500,                     !- Specific Heat
    0.9,                      !- Thermal Absorptance
    0.7,                      !- Solar Absorptance
    0.7;                      !- Visible Absorptance

MATERIAL,
    Insulation 0.095,         !- Name
    Rough,                    !- Roughness
    0.095,                    !- Thickness
    0.04,                     !- Conductivity
    40,                       !- Density
    1500,                     !- Specific Heat
    0.9,                      !- Thermal Absorptance
    0.7,                      !- Solar Absorptance
    0.7;                      !- Visible Absorptance

MATERIAL,
    Insulation 0.049,         !- Name
    Rough,                    !- Roughness
    0.049,                    !- Thickness
    0.04,                     !- Conductivity
    40,                       !- Density
    1500,                     !- Specific Heat
    0.9,                      !- Thermal Absorptance
    0.7,                      !- Solar Absorptance
    0.7;                      !- Visible Absorptance

MATERIAL,
    Insulation 0.13,          !- Name
    Rough,                    !- Roughness
    0.13,                     !- Thickness
    0.04,                     !- Conductivity
    40,                       !- Density
    1500,                     !- Specific Heat
    0.9,                      !- Thermal Absorptance
    0.7,                      !- Solar Absorptance
    0.7;                      !- Visible Absorptance

MATERIAL,
    Insulation 0.16,          !- Name
    Rough,                    !- Roughness
    0.16,                     !- Thickness
    0.04,                     !- Conductivity
    40,                       !- Density
    1500,                     !- Specific Heat
    0.9,                      !- Thermal Absorptance
    0.7,                      !- Solar Absorptance
    0.7;                      !- Visible Absorptance

MATERIAL,
    Insulation 0.039,         !- Name
    Rough,                    !- Roughness
    0.039,                    !- Thickness
    0.04,                     !- Conductivity
    40,                       !- Density
    1500,                     !- Specific Heat
    0.9,                      !- Thermal Absorptance
    0.7,                      !- Solar Absorptance
    0.7;                      !- Visible Absorptance

MATERIAL,
    Insulation 0.081,         !- Name
    Rough,                    !- Roughness
    0.081,                    !- Thickness
    0.04,                     !- Conductivity
    40,                       !- Density
    1500,                     !- Specific Heat
    0.9,                      !- Thermal Absorptance
    0.7,                      !- Solar Absorptance
    0.7;                      !- Visible Absorptance

MATERIAL,
    Insulation 0.11,          !- Name
    Rough,                    !- Roughness
    0.11,                     !- Thickness
    0.04,                     !- Conductivity
    40,                       !- Density
    1500,                     !- Specific Heat
    0.9,                      !- Thermal Absorptance
    0.7,                      !- Solar Absorptance
    0.7;                      !- Visible Absorptance

MATERIAL,
    Insulation 0.01,          !- Name
    Rough,                    !- Roughness
    0.01,                     !- Thickness
    0.04,                     !- Conductivity
    40,                       !- Density
    1500,                     !- Specific Heat
    0.9,                      !- Thermal Absorptance
    0.7,                      !- Solar Absorptance
    0.7;                      !- Visible Absorptance

MATERIAL,
    Insulation 0.034,         !- Name
    Rough,                    !- Roughness
    0.034,                    !- Thickness
    0.04,                     !- Conductivity
    40,                       !- Density
    1500,                     !- Specific Heat
    0.9,                      !- Thermal Absorptance
    0.7,                      !- Solar Absorptance
    0.7;                      !- Visible Absorptance

MATERIAL,
    Insulation 0.044,         !- Name
    Rough,                    !- Roughness
    0.044,                    !- Thickness
    0.04,                     !- Conductivity
    40,                       !- Density
    1500,                     !- Specific Heat
    0.9,                      !- Thermal Absorptance
    0.7,                      !- Solar Absorptance
    0.7;                      !- Visible Absorptance

MATERIAL,
    Insulation 0.051,         !- Name
    Rough,                    !- Roughness
    0.051,                    !- Thickness
    0.04,                     !- Conductivity
    40,                       !- Density
    1500,                     !- Specific Heat
    0.9,                      !- Thermal Absorptance
    0.7,                      !- Solar Absorptance
    0.7;                      !- Visible Absorptance

MATERIAL,
    Insulation 0.074,         !- Name
    Rough,                    !- Roughness
    0.074,                    !- Thickness
    0.04,                     !- Conductivity
    40,                       !- Density
    1500,                     !- Specific Heat
    0.9,                      !- Thermal Absorptance
    0.7,                      !- Solar Absorptance
    0.7;                      !- Visible Absorptance

MATERIAL,
    Insulation 0.05,          !- Name
    Rough,                    !- Roughness
    0.05,                     !- Thickness
    0.04,                     !- Conductivity
    40,                       !- Density
    1500,                     !- Specific Heat
    0.9,                      !- Thermal Absorptance
    0.7,                      !- Solar Absorptance
    0.7;                      !- Visible Absorptance

MATERIAL,
    Insulation 0.082,         !- Name
    Rough,                    !- Roughness
    0.082,                    !- Thickness
    0.04,                     !- Conductivity
    40,                       !- Density
    1500,                     !- Specific Heat
    0.9,                      !- Thermal Absorptance
    0.7,                      !- Solar Absorptance
    0.7;                      !- Visible Absorptance

MATERIAL,
    Insulation 0.096,         !- Name
    Rough,                    !- Roughness
    0.096,                    !- Thickness
    0.04,                     !- Conductivity
    40,                       !- Density
    1500,                     !- Specific Heat
    0.9,                      !- Thermal Absorptance
    0.7,                      !- Solar Absorptance
    0.7;                      !- Visible Absorptance

MATERIAL,
    Insulation 0.059,         !- Name
    Rough,                    !- Roughness
    0.059,                    !- Thickness
    0.04,                     !- Conductivity
    40,                       !- Density
    1500,                     !- Specific Heat
    0.9,                      !- Thermal Absorptance
    0.7,                      !- Solar Absorptance
    0.7;                      !- Visible Absorptance

MATERIAL,
    Insulation 0.0078,        !- Name
    Rough,                    !- Roughness
    0.008,                    !- Thickness
    0.04,                     !- Conductivity
    40,                       !- Density
    1500,                     !- Specific Heat
    0.9,                      !- Thermal Absorptance
    0.7,                      !- Solar Absorptance
    0.7;                      !- Visible Absorptance

MATERIAL,
    Insulation 0.061,         !- Name
    Rough,                    !- Roughness
    0.061,                    !- Thickness
    0.04,                     !- Conductivity
    40,                       !- Density
    1500,                     !- Specific Heat
    0.9,                      !- Thermal Absorptance
    0.7,                      !- Solar Absorptance
    0.7;                      !- Visible Absorptance

MATERIAL,
    Insulation 0.04,          !- Name
    Rough,                    !- Roughness
    0.04,                     !- Thickness
    0.04,                     !- Conductivity
    40,                       !- Density
    1500,                     !- Specific Heat
    0.9,                      !- Thermal Absorptance
    0.7,                      !- Solar Absorptance
    0.7;                      !- Visible Absorptance

MATERIAL,
    Insulation 0.073,         !- Name
    Rough,                    !- Roughness
    0.073,                    !- Thickness
    0.04,                     !- Conductivity
    40,                       !- Density
    1500,                     !- Specific Heat
    0.9,                      !- Thermal Absorptance
    0.7,                      !- Solar Absorptance
    0.7;                      !- Visible Absorptance

MATERIAL,
    Insulation 0.053,         !- Name
    Rough,                    !- Roughness
    0.053,                    !- Thickness
    0.04,                     !- Conductivity
    40,                       !- Density
    1500,                     !- Specific Heat
    0.9,                      !- Thermal Absorptance
    0.7,                      !- Solar Absorptance
    0.7;                      !- Visible Absorptance

MATERIAL,
    Insulation 0.068,         !- Name
    Rough,                    !- Roughness
    0.068,                    !- Thickness
    0.04,                     !- Conductivity
    40,                       !- Density
    1500,                     !- Specific Heat
    0.9,                      !- Thermal Absorptance
    0.7,                      !- Solar Absorptance
    0.7;                      !- Visible Absorptance

MATERIAL,
    Insulation 0.0059,        !- Name
    Rough,                    !- Roughness
    0.006,                    !- Thickness
    0.04,                     !- Conductivity
    40,                       !- Density
    1500,                     !- Specific Heat
    0.9,                      !- Thermal Absorptance
    0.7,                      !- Solar Absorptance
    0.7;                      !- Visible Absorptance

MATERIAL,
    Insulation 0.033,         !- Name
    Rough,                    !- Roughness
    0.033,                    !- Thickness
    0.04,                     !- Conductivity
    40,                       !- Density
    1500,                     !- Specific Heat
    0.9,                      !- Thermal Absorptance
    0.7,                      !- Solar Absorptance
    0.7;                      !- Visible Absorptance

MATERIAL,
    Insulation 0.0081,        !- Name
    Rough,                    !- Roughness
    0.008,                    !- Thickness
    0.04,                     !- Conductivity
    40,                       !- Density
    1500,                     !- Specific Heat
    0.9,                      !- Thermal Absorptance
    0.7,                      !- Solar Absorptance
    0.7;                      !- Visible Absorptance

MATERIAL,
    Insulation 0.019,         !- Name
    Rough,                    !- Roughness
    0.019,                    !- Thickness
    0.04,                     !- Conductivity
    40,                       !- Density
    1500,                     !- Specific Heat
    0.9,                      !- Thermal Absorptance
    0.7,                      !- Solar Absorptance
    0.7;                      !- Visible Absorptance

MATERIAL,
    Insulation 0.0044,        !- Name
    Rough,                    !- Roughness
    0.004,                    !- Thickness
    0.04,                     !- Conductivity
    40,                       !- Density
    1500,                     !- Specific Heat
    0.9,                      !- Thermal Absorptance
    0.7,                      !- Solar Absorptance
    0.7;                      !- Visible Absorptance

MATERIAL,
    Insulation 0.025,         !- Name
    Rough,                    !- Roughness
    0.025,                    !- Thickness
    0.04,                     !- Conductivity
    40,                       !- Density
    1500,                     !- Specific Heat
    0.9,                      !- Thermal Absorptance
    0.7,                      !- Solar Absorptance
    0.7;                      !- Visible Absorptance

WindowMaterial:SimpleGlazingSystem,
    SCZ1_Residential_1980_Win_material,    !- Name
    3.3,                      !- UFactor
    0.75;                     !- Solar Heat Gain Coefficient

WindowMaterial:SimpleGlazingSystem,
    SCZ1_Residential_1995_Win_material,    !- Name
    2.25,                     !- UFactor
    0.55;                     !- Solar Heat Gain Coefficient

WindowMaterial:SimpleGlazingSystem,
    SCZ1_Residential_2005_Win_material,    !- Name
    2.2,                      !- UFactor
    0.5;                      !- Solar Heat Gain Coefficient

WindowMaterial:SimpleGlazingSystem,
    SCZ1_Residential_2015_Win_material,    !- Name
    1.6,                      !- UFactor
    0.4;                      !- Solar Heat Gain Coefficient

WindowMaterial:SimpleGlazingSystem,
    SCZ2_Residential_1980_Win_material,    !- Name
    6.5,                      !- UFactor
    0.78;                     !- Solar Heat Gain Coefficient

WindowMaterial:SimpleGlazingSystem,
    SCZ2_Residential_1995_Win_material,    !- Name
    3.5,                      !- UFactor
    0.6;                      !- Solar Heat Gain Coefficient

WindowMaterial:SimpleGlazingSystem,
    SCZ2_Residential_2005_Win_material,    !- Name
    2.2,                      !- UFactor
    0.55;                     !- Solar Heat Gain Coefficient

WindowMaterial:SimpleGlazingSystem,
    SCZ2_Residential_2015_Win_material,    !- Name
    2,                        !- UFactor
    0.45;                     !- Solar Heat Gain Coefficient

WindowMaterial:SimpleGlazingSystem,
    CZ_Residential_1980_Win_material,    !- Name
    6.075,                    !- UFactor
    0.81;                     !- Solar Heat Gain Coefficient

WindowMaterial:SimpleGlazingSystem,
    CZ_Residential_1995_Win_material,    !- Name
    4.725,                    !- UFactor
    0.6875;                   !- Solar Heat Gain Coefficient

WindowMaterial:SimpleGlazingSystem,
    CZ_Residential_2005_Win_material,    !- Name
    3.7,                      !- UFactor
    0.5475;                   !- Solar Heat Gain Coefficient

WindowMaterial:SimpleGlazingSystem,
    CZ_Residential_2015_Win_material,    !- Name
    2.475,                    !- UFactor
    0.40249999999999997;      !- Solar Heat Gain Coefficient

WindowMaterial:SimpleGlazingSystem,
    HSCWZ_Residential_1980_Win_material,    !- Name
    6.075,                    !- UFactor
    0.81;                     !- Solar Heat Gain Coefficient

WindowMaterial:SimpleGlazingSystem,
    HSCWZ_Residential_1995_Win_material,    !- Name
    4.725,                    !- UFactor
    0.6875;                   !- Solar Heat Gain Coefficient

WindowMaterial:SimpleGlazingSystem,
    HSCWZ_Residential_2005_Win_material,    !- Name
    3.7,                      !- UFactor
    0.5475;                   !- Solar Heat Gain Coefficient

WindowMaterial:SimpleGlazingSystem,
    HSCWZ_Residential_2015_Win_material,    !- Name
    2.475,                    !- UFactor
    0.40249999999999997;      !- Solar Heat Gain Coefficient

WindowMaterial:SimpleGlazingSystem,
    HSWWZ_Residential_1980_Win_material,    !- Name
    6.075,                    !- UFactor
    0.81;                     !- Solar Heat Gain Coefficient

WindowMaterial:SimpleGlazingSystem,
    HSWWZ_Residential_1995_Win_material,    !- Name
    4.725,                    !- UFactor
    0.6875;                   !- Solar Heat Gain Coefficient

WindowMaterial:SimpleGlazingSystem,
    HSWWZ_Residential_2005_Win_material,    !- Name
    3.7,                      !- UFactor
    0.5475;                   !- Solar Heat Gain Coefficient

WindowMaterial:SimpleGlazingSystem,
    HSWWZ_Residential_2015_Win_material,    !- Name
    2.475,                    !- UFactor
    0.40249999999999997;      !- Solar Heat Gain Coefficient

WindowMaterial:SimpleGlazingSystem,
    TZ_Residential_1980_Win_material,    !- Name
    6.075,                    !- UFactor
    0.81;                     !- Solar Heat Gain Coefficient

WindowMaterial:SimpleGlazingSystem,
    TZ_Residential_1995_Win_material,    !- Name
    4.725,                    !- UFactor
    0.6875;                   !- Solar Heat Gain Coefficient

WindowMaterial:SimpleGlazingSystem,
    TZ_Residential_2005_Win_material,    !- Name
    3.7,                      !- UFactor
    0.5475;                   !- Solar Heat Gain Coefficient

WindowMaterial:SimpleGlazingSystem,
    TZ_Residential_2015_Win_material,    !- Name
    2.475,                    !- UFactor
    0.40249999999999997;      !- Solar Heat Gain Coefficient

Construction,
    SCZ1_Residential_1980_FloorSlab,    !- Name
    Tile,                     !- Outside Layer
    Concrete,                 !- Layer 2
    Insulation 0.027,         !- Layer 3
    Concrete,                 !- Layer 4
    Tile;                     !- Layer 5

Construction,
    SCZ1_Residential_1995_FloorSlab,    !- Name
    Tile,                     !- Outside Layer
    Concrete,                 !- Layer 2
    Insulation 0.051,         !- Layer 3
    Concrete,                 !- Layer 4
    Tile;                     !- Layer 5

Construction,
    SCZ1_Residential_2005_FloorSlab,    !- Name
    Tile,                     !- Outside Layer
    Concrete,                 !- Layer 2
    Insulation 0.051,         !- Layer 3
    Concrete,                 !- Layer 4
    Tile;                     !- Layer 5

Construction,
    SCZ1_Residential_2015_FloorSlab,    !- Name
    Tile,                     !- Outside Layer
    Concrete,                 !- Layer 2
    Insulation 0.074,         !- Layer 3
    Concrete,                 !- Layer 4
    Tile;                     !- Layer 5

Construction,
    SCZ1_Residential_1980_FloorGround,    !- Name
    Tile,                     !- Outside Layer
    Concrete,                 !- Layer 2
    Gypsum,                   !- Layer 3
    Insulation 0.05;          !- Layer 4

Construction,
    SCZ1_Residential_1995_FloorGround,    !- Name
    Tile,                     !- Outside Layer
    Concrete,                 !- Layer 2
    Gypsum,                   !- Layer 3
    Insulation 0.082;         !- Layer 4

Construction,
    SCZ1_Residential_2005_FloorGround,    !- Name
    Tile,                     !- Outside Layer
    Concrete,                 !- Layer 2
    Gypsum,                   !- Layer 3
    Insulation 0.082;         !- Layer 4

Construction,
    SCZ1_Residential_2015_FloorGround,    !- Name
    Tile,                     !- Outside Layer
    Concrete,                 !- Layer 2
    Gypsum,                   !- Layer 3
    Insulation 0.082;         !- Layer 4

Construction,
    SCZ1_Residential_1980_Win,    !- Name
    SCZ1_Residential_1980_Win_material;    !- Outside Layer

Construction,
    SCZ1_Residential_1995_Win,    !- Name
    SCZ1_Residential_1995_Win_material;    !- Outside Layer

Construction,
    SCZ1_Residential_2005_Win,    !- Name
    SCZ1_Residential_2005_Win_material;    !- Outside Layer

Construction,
    SCZ1_Residential_2015_Win,    !- Name
    SCZ1_Residential_2015_Win_material;    !- Outside Layer

Construction,
    SCZ2_Residential_1980_FloorSlab,    !- Name
    Tile,                     !- Outside Layer
    Concrete,                 !- Layer 2
    Insulation 0.027,         !- Layer 3
    Concrete,                 !- Layer 4
    Tile;                     !- Layer 5

Construction,
    SCZ2_Residential_1995_FloorSlab,    !- Name
    Tile,                     !- Outside Layer
    Concrete,                 !- Layer 2
    Insulation 0.051,         !- Layer 3
    Concrete,                 !- Layer 4
    Tile;                     !- Layer 5

Construction,
    SCZ2_Residential_2005_FloorSlab,    !- Name
    Tile,                     !- Outside Layer
    Concrete,                 !- Layer 2
    Insulation 0.051,         !- Layer 3
    Concrete,                 !- Layer 4
    Tile;                     !- Layer 5

Construction,
    SCZ2_Residential_2015_FloorSlab,    !- Name
    Tile,                     !- Outside Layer
    Concrete,                 !- Layer 2
    Insulation 0.074,         !- Layer 3
    Concrete,                 !- Layer 4
    Tile;                     !- Layer 5

Construction,
    SCZ2_Residential_1980_FloorGround,    !- Name
    Tile,                     !- Outside Layer
    Concrete,                 !- Layer 2
    Gypsum,                   !- Layer 3
    Insulation 0.05;          !- Layer 4

Construction,
    SCZ2_Residential_1995_FloorGround,    !- Name
    Tile,                     !- Outside Layer
    Concrete,                 !- Layer 2
    Gypsum,                   !- Layer 3
    Insulation 0.082;         !- Layer 4

Construction,
    SCZ2_Residential_2005_FloorGround,    !- Name
    Tile,                     !- Outside Layer
    Concrete,                 !- Layer 2
    Gypsum,                   !- Layer 3
    Insulation 0.082;         !- Layer 4

Construction,
    SCZ2_Residential_2015_FloorGround,    !- Name
    Tile,                     !- Outside Layer
    Concrete,                 !- Layer 2
    Gypsum,                   !- Layer 3
    Insulation 0.082;         !- Layer 4

Construction,
    SCZ2_Residential_1980_Win,    !- Name
    SCZ2_Residential_1980_Win_material;    !- Outside Layer

Construction,
    SCZ2_Residential_1995_Win,    !- Name
    SCZ2_Residential_1995_Win_material;    !- Outside Layer

Construction,
    SCZ2_Residential_2005_Win,    !- Name
    SCZ2_Residential_2005_Win_material;    !- Outside Layer

Construction,
    SCZ2_Residential_2015_Win,    !- Name
    SCZ2_Residential_2015_Win_material;    !- Outside Layer

Construction,
    CZ_Residential_1980_FloorSlab,    !- Name
    Tile,                     !- Outside Layer
    Concrete,                 !- Layer 2
    Insulation 0.021,         !- Layer 3
    Concrete,                 !- Layer 4
    Tile;                     !- Layer 5

Construction,
    CZ_Residential_1995_FloorSlab,    !- Name
    Tile,                     !- Outside Layer
    Concrete,                 !- Layer 2
    Insulation 0.051,         !- Layer 3
    Concrete,                 !- Layer 4
    Tile;                     !- Layer 5

Construction,
    CZ_Residential_2005_FloorSlab,    !- Name
    Tile,                     !- Outside Layer
    Concrete,                 !- Layer 2
    Insulation 0.051,         !- Layer 3
    Concrete,                 !- Layer 4
    Tile;                     !- Layer 5

Construction,
    CZ_Residential_2015_FloorSlab,    !- Name
    Tile,                     !- Outside Layer
    Concrete,                 !- Layer 2
    Insulation 0.061,         !- Layer 3
    Concrete,                 !- Layer 4
    Tile;                     !- Layer 5

Construction,
    CZ_Residential_1980_FloorGround,    !- Name
    Tile,                     !- Outside Layer
    Concrete,                 !- Layer 2
    Gypsum,                   !- Layer 3
    Insulation 0.04;          !- Layer 4

Construction,
    CZ_Residential_1995_FloorGround,    !- Name
    Tile,                     !- Outside Layer
    Concrete,                 !- Layer 2
    Gypsum,                   !- Layer 3
    Insulation 0.073;         !- Layer 4

Construction,
    CZ_Residential_2005_FloorGround,    !- Name
    Tile,                     !- Outside Layer
    Concrete,                 !- Layer 2
    Gypsum,                   !- Layer 3
    Insulation 0.073;         !- Layer 4

Construction,
    CZ_Residential_2015_FloorGround,    !- Name
    Tile,                     !- Outside Layer
    Concrete,                 !- Layer 2
    Gypsum,                   !- Layer 3
    Insulation 0.073;         !- Layer 4

Construction,
    CZ_Residential_1980_Win,    !- Name
    CZ_Residential_1980_Win_material;    !- Outside Layer

Construction,
    CZ_Residential_1995_Win,    !- Name
    CZ_Residential_1995_Win_material;    !- Outside Layer

Construction,
    CZ_Residential_2005_Win,    !- Name
    CZ_Residential_2005_Win_material;    !- Outside Layer

Construction,
    CZ_Residential_2015_Win,    !- Name
    CZ_Residential_2015_Win_material;    !- Outside Layer

Construction,
    HSCWZ_Residential_1980_FloorSlab,    !- Name
    Tile,                     !- Outside Layer
    Concrete,                 !- Layer 2
    Insulation 0.014,         !- Layer 3
    Concrete,                 !- Layer 4
    Tile;                     !- Layer 5

Construction,
    HSCWZ_Residential_1995_FloorSlab,    !- Name
    Tile,                     !- Outside Layer
    Concrete,                 !- Layer 2
    Insulation 0.044,         !- Layer 3
    Concrete,                 !- Layer 4
    Tile;                     !- Layer 5

Construction,
    HSCWZ_Residential_2005_FloorSlab,    !- Name
    Tile,                     !- Outside Layer
    Concrete,                 !- Layer 2
    Insulation 0.044,         !- Layer 3
    Concrete,                 !- Layer 4
    Tile;                     !- Layer 5

Construction,
    HSCWZ_Residential_2015_FloorSlab,    !- Name
    Tile,                     !- Outside Layer
    Concrete,                 !- Layer 2
    Insulation 0.044,         !- Layer 3
    Concrete,                 !- Layer 4
    Tile;                     !- Layer 5

Construction,
    HSCWZ_Residential_1980_FloorGround,    !- Name
    Tile,                     !- Outside Layer
    Concrete,                 !- Layer 2
    Gypsum,                   !- Layer 3
    Insulation 0.033;         !- Layer 4

Construction,
    HSCWZ_Residential_1995_FloorGround,    !- Name
    Tile,                     !- Outside Layer
    Concrete,                 !- Layer 2
    Gypsum,                   !- Layer 3
    Insulation 0.05;          !- Layer 4

Construction,
    HSCWZ_Residential_2005_FloorGround,    !- Name
    Tile,                     !- Outside Layer
    Concrete,                 !- Layer 2
    Gypsum,                   !- Layer 3
    Insulation 0.05;          !- Layer 4

Construction,
    HSCWZ_Residential_2015_FloorGround,    !- Name
    Tile,                     !- Outside Layer
    Concrete,                 !- Layer 2
    Gypsum,                   !- Layer 3
    Insulation 0.05;          !- Layer 4

Construction,
    HSCWZ_Residential_1980_Win,    !- Name
    HSCWZ_Residential_1980_Win_material;    !- Outside Layer

Construction,
    HSCWZ_Residential_1995_Win,    !- Name
    HSCWZ_Residential_1995_Win_material;    !- Outside Layer

Construction,
    HSCWZ_Residential_2005_Win,    !- Name
    HSCWZ_Residential_2005_Win_material;    !- Outside Layer

Construction,
    HSCWZ_Residential_2015_Win,    !- Name
    HSCWZ_Residential_2015_Win_material;    !- Outside Layer

Construction,
    HSWWZ_Residential_1980_FloorSlab,    !- Name
    Tile,                     !- Outside Layer
    Concrete,                 !- Layer 2
    Insulation 0.01,          !- Layer 3
    Concrete,                 !- Layer 4
    Tile;                     !- Layer 5

Construction,
    HSWWZ_Residential_1995_FloorSlab,    !- Name
    Tile,                     !- Outside Layer
    Concrete,                 !- Layer 2
    Insulation 0.034,         !- Layer 3
    Concrete,                 !- Layer 4
    Tile;                     !- Layer 5

Construction,
    HSWWZ_Residential_2005_FloorSlab,    !- Name
    Tile,                     !- Outside Layer
    Concrete,                 !- Layer 2
    Insulation 0.034,         !- Layer 3
    Concrete,                 !- Layer 4
    Tile;                     !- Layer 5

Construction,
    HSWWZ_Residential_2015_FloorSlab,    !- Name
    Tile,                     !- Outside Layer
    Concrete,                 !- Layer 2
    Insulation 0.034,         !- Layer 3
    Concrete,                 !- Layer 4
    Tile;                     !- Layer 5

Construction,
    HSWWZ_Residential_1980_FloorGround,    !- Name
    Tile,                     !- Outside Layer
    Concrete,                 !- Layer 2
    Gypsum,                   !- Layer 3
    Insulation 0.027;         !- Layer 4

Construction,
    HSWWZ_Residential_1995_FloorGround,    !- Name
    Tile,                     !- Outside Layer
    Concrete,                 !- Layer 2
    Gypsum,                   !- Layer 3
    Insulation 0.043;         !- Layer 4

Construction,
    HSWWZ_Residential_2005_FloorGround,    !- Name
    Tile,                     !- Outside Layer
    Concrete,                 !- Layer 2
    Gypsum,                   !- Layer 3
    Insulation 0.043;         !- Layer 4

Construction,
    HSWWZ_Residential_2015_FloorGround,    !- Name
    Tile,                     !- Outside Layer
    Concrete,                 !- Layer 2
    Gypsum,                   !- Layer 3
    Insulation 0.043;         !- Layer 4

Construction,
    HSWWZ_Residential_1980_Win,    !- Name
    HSWWZ_Residential_1980_Win_material;    !- Outside Layer

Construction,
    HSWWZ_Residential_1995_Win,    !- Name
    HSWWZ_Residential_1995_Win_material;    !- Outside Layer

Construction,
    HSWWZ_Residential_2005_Win,    !- Name
    HSWWZ_Residential_2005_Win_material;    !- Outside Layer

Construction,
    HSWWZ_Residential_2015_Win,    !- Name
    HSWWZ_Residential_2015_Win_material;    !- Outside Layer

Construction,
    TZ_Residential_1980_FloorSlab,    !- Name
    Tile,                     !- Outside Layer
    Concrete,                 !- Layer 2
    Insulation 0.01,          !- Layer 3
    Concrete,                 !- Layer 4
    Tile;                     !- Layer 5

Construction,
    TZ_Residential_1995_FloorSlab,    !- Name
    Tile,                     !- Outside Layer
    Concrete,                 !- Layer 2
    Insulation 0.021,         !- Layer 3
    Concrete,                 !- Layer 4
    Tile;                     !- Layer 5

Construction,
    TZ_Residential_2005_FloorSlab,    !- Name
    Tile,                     !- Outside Layer
    Concrete,                 !- Layer 2
    Insulation 0.021,         !- Layer 3
    Concrete,                 !- Layer 4
    Tile;                     !- Layer 5

Construction,
    TZ_Residential_2015_FloorSlab,    !- Name
    Tile,                     !- Outside Layer
    Concrete,                 !- Layer 2
    Insulation 0.021,         !- Layer 3
    Concrete,                 !- Layer 4
    Tile;                     !- Layer 5

Construction,
    TZ_Residential_1980_FloorGround,    !- Name
    Tile,                     !- Outside Layer
    Concrete,                 !- Layer 2
    Gypsum,                   !- Layer 3
    Insulation 0.027;         !- Layer 4

Construction,
    TZ_Residential_1995_FloorGround,    !- Name
    Tile,                     !- Outside Layer
    Concrete,                 !- Layer 2
    Gypsum,                   !- Layer 3
    Insulation 0.033;         !- Layer 4

Construction,
    TZ_Residential_2005_FloorGround,    !- Name
    Tile,                     !- Outside Layer
    Concrete,                 !- Layer 2
    Gypsum,                   !- Layer 3
    Insulation 0.033;         !- Layer 4

Construction,
    TZ_Residential_2015_FloorGround,    !- Name
    Tile,                     !- Outside Layer
    Concrete,                 !- Layer 2
    Gypsum,                   !- Layer 3
    Insulation 0.033;         !- Layer 4

Construction,
    TZ_Residential_1980_Win,    !- Name
    TZ_Residential_1980_Win_material;    !- Outside Layer

Construction,
    TZ_Residential_1995_Win,    !- Name
    TZ_Residential_1995_Win_material;    !- Outside Layer

Construction,
    TZ_Residential_2005_Win,    !- Name
    TZ_Residential_2005_Win_material;    !- Outside Layer

Construction,
    TZ_Residential_2015_Win,    !- Name
    TZ_Residential_2015_Win_material;    !- Outside Layer

CONSTRUCTION,
    SCZ1_Residential_1980_Roof,    !- Name
    AsphaltFelt,              !- Outside Layer
    Concrete,                 !- Layer 2
    Insulation 0.043;         !- Layer 3

CONSTRUCTION,
    SCZ1_Residential_1995_Roof,    !- Name
    AsphaltFelt,              !- Outside Layer
    Concrete,                 !- Layer 2
    Insulation 0.043;         !- Layer 3

CONSTRUCTION,
    SCZ1_Residential_2005_Roof,    !- Name
    AsphaltFelt,              !- Outside Layer
    Concrete,                 !- Layer 2
    Insulation 0.043;         !- Layer 3

CONSTRUCTION,
    SCZ1_Residential_2015_Roof,    !- Name
    AsphaltFelt,              !- Outside Layer
    Concrete,                 !- Layer 2
    Insulation 0.043;         !- Layer 3

CONSTRUCTION,
    SCZ1_Residential_1980_ExtWall,    !- Name
    Brick,                    !- Outside Layer
    Concrete,                 !- Layer 2
    Insulation 0.016;         !- Layer 3

CONSTRUCTION,
    SCZ1_Residential_1995_ExtWall,    !- Name
    Brick,                    !- Outside Layer
    Concrete,                 !- Layer 2
    Insulation 0.016;         !- Layer 3

CONSTRUCTION,
    SCZ1_Residential_2005_ExtWall,    !- Name
    Brick,                    !- Outside Layer
    Concrete,                 !- Layer 2
    Insulation 0.016;         !- Layer 3

CONSTRUCTION,
    SCZ1_Residential_2015_ExtWall,    !- Name
    Brick,                    !- Outside Layer
    Concrete,                 !- Layer 2
    Insulation 0.016;         !- Layer 3

CONSTRUCTION,
    SCZ1_Residential_1980_IntWall,    !- Name
    Brick,                    !- Outside Layer
    Brick;                    !- Layer 2

CONSTRUCTION,
    SCZ1_Residential_1995_IntWall,    !- Name
    Brick,                    !- Outside Layer
    Brick;                    !- Layer 2

CONSTRUCTION,
    SCZ1_Residential_2005_IntWall,    !- Name
    Brick,                    !- Outside Layer
    Brick;                    !- Layer 2

CONSTRUCTION,
    SCZ1_Residential_2015_IntWall,    !- Name
    Brick,                    !- Outside Layer
    Brick;                    !- Layer 2

CONSTRUCTION,
    SCZ2_Residential_1980_Roof,    !- Name
    AsphaltFelt,              !- Outside Layer
    Concrete,                 !- Layer 2
    Insulation 0.038;         !- Layer 3

CONSTRUCTION,
    SCZ2_Residential_1995_Roof,    !- Name
    AsphaltFelt,              !- Outside Layer
    Concrete,                 !- Layer 2
    Insulation 0.038;         !- Layer 3

CONSTRUCTION,
    SCZ2_Residential_2005_Roof,    !- Name
    AsphaltFelt,              !- Outside Layer
    Concrete,                 !- Layer 2
    Insulation 0.038;         !- Layer 3

CONSTRUCTION,
    SCZ2_Residential_2015_Roof,    !- Name
    AsphaltFelt,              !- Outside Layer
    Concrete,                 !- Layer 2
    Insulation 0.038;         !- Layer 3

CONSTRUCTION,
    SCZ2_Residential_1980_ExtWall,    !- Name
    Brick,                    !- Outside Layer
    Concrete,                 !- Layer 2
    Insulation 0.014;         !- Layer 3

CONSTRUCTION,
    SCZ2_Residential_1995_ExtWall,    !- Name
    Brick,                    !- Outside Layer
    Concrete,                 !- Layer 2
    Insulation 0.014;         !- Layer 3

CONSTRUCTION,
    SCZ2_Residential_2005_ExtWall,    !- Name
    Brick,                    !- Outside Layer
    Concrete,                 !- Layer 2
    Insulation 0.014;         !- Layer 3

CONSTRUCTION,
    SCZ2_Residential_2015_ExtWall,    !- Name
    Brick,                    !- Outside Layer
    Concrete,                 !- Layer 2
    Insulation 0.014;         !- Layer 3

CONSTRUCTION,
    SCZ2_Residential_1980_IntWall,    !- Name
    Brick,                    !- Outside Layer
    Brick;                    !- Layer 2

CONSTRUCTION,
    SCZ2_Residential_1995_IntWall,    !- Name
    Brick,                    !- Outside Layer
    Brick;                    !- Layer 2

CONSTRUCTION,
    SCZ2_Residential_2005_IntWall,    !- Name
    Brick,                    !- Outside Layer
    Brick;                    !- Layer 2

CONSTRUCTION,
    SCZ2_Residential_2015_IntWall,    !- Name
    Brick,                    !- Outside Layer
    Brick;                    !- Layer 2

CONSTRUCTION,
    CZ_Residential_1980_Roof,    !- Name
    AsphaltFelt,              !- Outside Layer
    Concrete,                 !- Layer 2
    Insulation 0.057;         !- Layer 3

CONSTRUCTION,
    CZ_Residential_1995_Roof,    !- Name
    AsphaltFelt,              !- Outside Layer
    Concrete,                 !- Layer 2
    Insulation 0.057;         !- Layer 3

CONSTRUCTION,
    CZ_Residential_2005_Roof,    !- Name
    AsphaltFelt,              !- Outside Layer
    Concrete,                 !- Layer 2
    Insulation 0.057;         !- Layer 3

CONSTRUCTION,
    CZ_Residential_2015_Roof,    !- Name
    AsphaltFelt,              !- Outside Layer
    Concrete,                 !- Layer 2
    Insulation 0.057;         !- Layer 3

CONSTRUCTION,
    CZ_Residential_1980_ExtWall,    !- Name
    Brick,                    !- Outside Layer
    Concrete,                 !- Layer 2
    Insulation 0.040;         !- Layer 3

CONSTRUCTION,
    CZ_Residential_1995_ExtWall,    !- Name
    Brick,                    !- Outside Layer
    Concrete,                 !- Layer 2
    Insulation 0.040;         !- Layer 3

CONSTRUCTION,
    CZ_Residential_2005_ExtWall,    !- Name
    Brick,                    !- Outside Layer
    Concrete,                 !- Layer 2
    Insulation 0.040;         !- Layer 3

CONSTRUCTION,
    CZ_Residential_2015_ExtWall,    !- Name
    Brick,                    !- Outside Layer
    Concrete,                 !- Layer 2
    Insulation 0.040;         !- Layer 3

CONSTRUCTION,
    CZ_Residential_1980_IntWall,    !- Name
    Brick,                    !- Outside Layer
    Brick;                    !- Layer 2

CONSTRUCTION,
    CZ_Residential_1995_IntWall,    !- Name
    Brick,                    !- Outside Layer
    Brick;                    !- Layer 2

CONSTRUCTION,
    CZ_Residential_2005_IntWall,    !- Name
    Brick,                    !- Outside Layer
    Brick;                    !- Layer 2

CONSTRUCTION,
    CZ_Residential_2015_IntWall,    !- Name
    Brick,                    !- Outside Layer
    Brick;                    !- Layer 2

CONSTRUCTION,
    HSCWZ_Residential_1980_Roof,    !- Name
    AsphaltFelt,              !- Outside Layer
    Concrete,                 !- Layer 2
    Insulation 0.029;         !- Layer 3

CONSTRUCTION,
    HSCWZ_Residential_1995_Roof,    !- Name
    AsphaltFelt,              !- Outside Layer
    Concrete,                 !- Layer 2
    Insulation 0.029;         !- Layer 3

CONSTRUCTION,
    HSCWZ_Residential_2005_Roof,    !- Name
    AsphaltFelt,              !- Outside Layer
    Concrete,                 !- Layer 2
    Insulation 0.029;         !- Layer 3

CONSTRUCTION,
    HSCWZ_Residential_2015_Roof,    !- Name
    AsphaltFelt,              !- Outside Layer
    Concrete,                 !- Layer 2
    Insulation 0.029;         !- Layer 3

CONSTRUCTION,
    HSCWZ_Residential_1980_ExtWall,    !- Name
    Brick,                    !- Outside Layer
    Concrete,                 !- Layer 2
    Insulation 0.011;         !- Layer 3

CONSTRUCTION,
    HSCWZ_Residential_1995_ExtWall,    !- Name
    Brick,                    !- Outside Layer
    Concrete,                 !- Layer 2
    Insulation 0.011;         !- Layer 3

CONSTRUCTION,
    HSCWZ_Residential_2005_ExtWall,    !- Name
    Brick,                    !- Outside Layer
    Concrete,                 !- Layer 2
    Insulation 0.011;         !- Layer 3

CONSTRUCTION,
    HSCWZ_Residential_2015_ExtWall,    !- Name
    Brick,                    !- Outside Layer
    Concrete,                 !- Layer 2
    Insulation 0.011;         !- Layer 3

CONSTRUCTION,
    HSCWZ_Residential_1980_IntWall,    !- Name
    Brick,                    !- Outside Layer
    Brick;                    !- Layer 2

CONSTRUCTION,
    HSCWZ_Residential_1995_IntWall,    !- Name
    Brick,                    !- Outside Layer
    Brick;                    !- Layer 2

CONSTRUCTION,
    HSCWZ_Residential_2005_IntWall,    !- Name
    Brick,                    !- Outside Layer
    Brick;                    !- Layer 2

CONSTRUCTION,
    HSCWZ_Residential_2015_IntWall,    !- Name
    Brick,                    !- Outside Layer
    Brick;                    !- Layer 2

CONSTRUCTION,
    HSWWZ_Residential_1980_Roof,    !- Name
    AsphaltFelt,              !- Outside Layer
    Concrete,                 !- Layer 2
    Insulation 0.014;         !- Layer 3

CONSTRUCTION,
    HSWWZ_Residential_1995_Roof,    !- Name
    AsphaltFelt,              !- Outside Layer
    Concrete,                 !- Layer 2
    Insulation 0.014;         !- Layer 3

CONSTRUCTION,
    HSWWZ_Residential_2005_Roof,    !- Name
    AsphaltFelt,              !- Outside Layer
    Concrete,                 !- Layer 2
    Insulation 0.014;         !- Layer 3

CONSTRUCTION,
    HSWWZ_Residential_2015_Roof,    !- Name
    AsphaltFelt,              !- Outside Layer
    Concrete,                 !- Layer 2
    Insulation 0.014;         !- Layer 3

CONSTRUCTION,
    HSWWZ_Residential_1980_ExtWall,    !- Name
    Brick,                    !- Outside Layer
    Concrete,                 !- Layer 2
    Insulation 0.007;         !- Layer 3

CONSTRUCTION,
    HSWWZ_Residential_1995_ExtWall,    !- Name
    Brick,                    !- Outside Layer
    Concrete,                 !- Layer 2
    Insulation 0.007;         !- Layer 3

CONSTRUCTION,
    HSWWZ_Residential_2005_ExtWall,    !- Name
    Brick,                    !- Outside Layer
    Concrete,                 !- Layer 2
    Insulation 0.007;         !- Layer 3

CONSTRUCTION,
    HSWWZ_Residential_2015_ExtWall,    !- Name
    Brick,                    !- Outside Layer
    Concrete,                 !- Layer 2
    Insulation 0.007;         !- Layer 3

CONSTRUCTION,
    HSWWZ_Residential_1980_IntWall,    !- Name
    Brick,                    !- Outside Layer
    Brick;                    !- Layer 2

CONSTRUCTION,
    HSWWZ_Residential_1995_IntWall,    !- Name
    Brick,                    !- Outside Layer
    Brick;                    !- Layer 2

CONSTRUCTION,
    HSWWZ_Residential_2005_IntWall,    !- Name
    Brick,                    !- Outside Layer
    Brick;                    !- Layer 2

CONSTRUCTION,
    HSWWZ_Residential_2015_IntWall,    !- Name
    Brick,                    !- Outside Layer
    Brick;                    !- Layer 2

CONSTRUCTION,
    TZ_Residential_1980_Roof,    !- Name
    AsphaltFelt,              !- Outside Layer
    Concrete,                 !- Layer 2
    Insulation 0.012;         !- Layer 3

CONSTRUCTION,
    TZ_Residential_1995_Roof,    !- Name
    AsphaltFelt,              !- Outside Layer
    Concrete,                 !- Layer 2
    Insulation 0.012;         !- Layer 3

CONSTRUCTION,
    TZ_Residential_2005_Roof,    !- Name
    AsphaltFelt,              !- Outside Layer
    Concrete,                 !- Layer 2
    Insulation 0.012;         !- Layer 3

CONSTRUCTION,
    TZ_Residential_2015_Roof,    !- Name
    AsphaltFelt,              !- Outside Layer
    Concrete,                 !- Layer 2
    Insulation 0.012;         !- Layer 3

CONSTRUCTION,
    TZ_Residential_1980_ExtWall,    !- Name
    Brick,                    !- Outside Layer
    Concrete,                 !- Layer 2
    Insulation 0.007;         !- Layer 3

CONSTRUCTION,
    TZ_Residential_1995_ExtWall,    !- Name
    Brick,                    !- Outside Layer
    Concrete,                 !- Layer 2
    Insulation 0.007;         !- Layer 3

CONSTRUCTION,
    TZ_Residential_2005_ExtWall,    !- Name
    Brick,                    !- Outside Layer
    Concrete,                 !- Layer 2
    Insulation 0.007;         !- Layer 3

CONSTRUCTION,
    TZ_Residential_2015_ExtWall,    !- Name
    Brick,                    !- Outside Layer
    Concrete,                 !- Layer 2
    Insulation 0.007;         !- Layer 3

CONSTRUCTION,
    TZ_Residential_1980_IntWall,    !- Name
    Brick,                    !- Outside Layer
    Brick;                    !- Layer 2

CONSTRUCTION,
    TZ_Residential_1995_IntWall,    !- Name
    Brick,                    !- Outside Layer
    Brick;                    !- Layer 2

CONSTRUCTION,
    TZ_Residential_2005_IntWall,    !- Name
    Brick,                    !- Outside Layer
    Brick;                    !- Layer 2

CONSTRUCTION,
    TZ_Residential_2015_IntWall,    !- Name
    Brick,                    !- Outside Layer
    Brick;                    !- Layer 2

GLOBALGEOMETRYRULES,
    UpperRightCorner,         !- Starting Vertex Position
    Counterclockwise,         !- Vertex Entry Direction
    Relative,                 !- Coordinate System
    Relative,                 !- Daylighting Reference Point Coordinate System
    Relative;                 !- Rectangular Surface Coordinate System

ZONE,
    Block Poly_87_Residential_3 Storey 0,    !- Name
    0,                        !- Direction of Relative North
    0,                        !- X Origin
    0,                        !- Y Origin
    0,                        !- Z Origin
    1,                        !- Type
    1,                        !- Multiplier
    autocalculate,            !- Ceiling Height
    autocalculate,            !- Volume
    autocalculate,            !- Floor Area
    ,                         !- Zone Inside Convection Algorithm
    ,                         !- Zone Outside Convection Algorithm
    Yes;                      !- Part of Total Floor Area

ZONE,
    Block Poly_87_Residential_3 Storey 1,    !- Name
    0,                        !- Direction of Relative North
    0,                        !- X Origin
    0,                        !- Y Origin
    0,                        !- Z Origin
    1,                        !- Type
    1,                        !- Multiplier
    autocalculate,            !- Ceiling Height
    autocalculate,            !- Volume
    autocalculate,            !- Floor Area
    ,                         !- Zone Inside Convection Algorithm
    ,                         !- Zone Outside Convection Algorithm
    Yes;                      !- Part of Total Floor Area

ZONE,
    Block Poly_87_Residential_3 Storey 2,    !- Name
    0,                        !- Direction of Relative North
    0,                        !- X Origin
    0,                        !- Y Origin
    0,                        !- Z Origin
    1,                        !- Type
    1,                        !- Multiplier
    autocalculate,            !- Ceiling Height
    autocalculate,            !- Volume
    autocalculate,            !- Floor Area
    ,                         !- Zone Inside Convection Algorithm
    ,                         !- Zone Outside Convection Algorithm
    Yes;                      !- Part of Total Floor Area

ZONE,
    Block Poly_87_Residential_3 Storey 3,    !- Name
    0,                        !- Direction of Relative North
    0,                        !- X Origin
    0,                        !- Y Origin
    0,                        !- Z Origin
    1,                        !- Type
    1,                        !- Multiplier
    autocalculate,            !- Ceiling Height
    autocalculate,            !- Volume
    autocalculate,            !- Floor Area
    ,                         !- Zone Inside Convection Algorithm
    ,                         !- Zone Outside Convection Algorithm
    Yes;                      !- Part of Total Floor Area

ZONE,
    Block Poly_87_Residential_3 Storey 4,    !- Name
    0,                        !- Direction of Relative North
    0,                        !- X Origin
    0,                        !- Y Origin
    0,                        !- Z Origin
    1,                        !- Type
    1,                        !- Multiplier
    autocalculate,            !- Ceiling Height
    autocalculate,            !- Volume
    autocalculate,            !- Floor Area
    ,                         !- Zone Inside Convection Algorithm
    ,                         !- Zone Outside Convection Algorithm
    Yes;                      !- Part of Total Floor Area

ZONE,
    Block Poly_87_Residential_3 Storey 5,    !- Name
    0,                        !- Direction of Relative North
    0,                        !- X Origin
    0,                        !- Y Origin
    0,                        !- Z Origin
    1,                        !- Type
    1,                        !- Multiplier
    autocalculate,            !- Ceiling Height
    autocalculate,            !- Volume
    autocalculate,            !- Floor Area
    ,                         !- Zone Inside Convection Algorithm
    ,                         !- Zone Outside Convection Algorithm
    Yes;                      !- Part of Total Floor Area

ZONE,
    Block Poly_87_Residential_3 Storey 6,    !- Name
    0,                        !- Direction of Relative North
    0,                        !- X Origin
    0,                        !- Y Origin
    0,                        !- Z Origin
    1,                        !- Type
    1,                        !- Multiplier
    autocalculate,            !- Ceiling Height
    autocalculate,            !- Volume
    autocalculate,            !- Floor Area
    ,                         !- Zone Inside Convection Algorithm
    ,                         !- Zone Outside Convection Algorithm
    Yes;                      !- Part of Total Floor Area

ZONE,
    Block Poly_87_Residential_3 Storey 7,    !- Name
    0,                        !- Direction of Relative North
    0,                        !- X Origin
    0,                        !- Y Origin
    0,                        !- Z Origin
    1,                        !- Type
    1,                        !- Multiplier
    autocalculate,            !- Ceiling Height
    autocalculate,            !- Volume
    autocalculate,            !- Floor Area
    ,                         !- Zone Inside Convection Algorithm
    ,                         !- Zone Outside Convection Algorithm
    Yes;                      !- Part of Total Floor Area

ZONE,
    Block Poly_87_Residential_3 Storey 8,    !- Name
    0,                        !- Direction of Relative North
    0,                        !- X Origin
    0,                        !- Y Origin
    0,                        !- Z Origin
    1,                        !- Type
    1,                        !- Multiplier
    autocalculate,            !- Ceiling Height
    autocalculate,            !- Volume
    autocalculate,            !- Floor Area
    ,                         !- Zone Inside Convection Algorithm
    ,                         !- Zone Outside Convection Algorithm
    Yes;                      !- Part of Total Floor Area

ZONE,
    Block Poly_87_Residential_3 Storey 9,    !- Name
    0,                        !- Direction of Relative North
    0,                        !- X Origin
    0,                        !- Y Origin
    0,                        !- Z Origin
    1,                        !- Type
    1,                        !- Multiplier
    autocalculate,            !- Ceiling Height
    autocalculate,            !- Volume
    autocalculate,            !- Floor Area
    ,                         !- Zone Inside Convection Algorithm
    ,                         !- Zone Outside Convection Algorithm
    Yes;                      !- Part of Total Floor Area

ZONE,
    Block Poly_87_Residential_3 Storey 10,    !- Name
    0,                        !- Direction of Relative North
    0,                        !- X Origin
    0,                        !- Y Origin
    0,                        !- Z Origin
    1,                        !- Type
    1,                        !- Multiplier
    autocalculate,            !- Ceiling Height
    autocalculate,            !- Volume
    autocalculate,            !- Floor Area
    ,                         !- Zone Inside Convection Algorithm
    ,                         !- Zone Outside Convection Algorithm
    Yes;                      !- Part of Total Floor Area

ZONE,
    Block Poly_87_Residential_3 Storey 11,    !- Name
    0,                        !- Direction of Relative North
    0,                        !- X Origin
    0,                        !- Y Origin
    0,                        !- Z Origin
    1,                        !- Type
    1,                        !- Multiplier
    autocalculate,            !- Ceiling Height
    autocalculate,            !- Volume
    autocalculate,            !- Floor Area
    ,                         !- Zone Inside Convection Algorithm
    ,                         !- Zone Outside Convection Algorithm
    Yes;                      !- Part of Total Floor Area

ZONE,
    Block Poly_87_Residential_3 Storey 12,    !- Name
    0,                        !- Direction of Relative North
    0,                        !- X Origin
    0,                        !- Y Origin
    0,                        !- Z Origin
    1,                        !- Type
    1,                        !- Multiplier
    autocalculate,            !- Ceiling Height
    autocalculate,            !- Volume
    autocalculate,            !- Floor Area
    ,                         !- Zone Inside Convection Algorithm
    ,                         !- Zone Outside Convection Algorithm
    Yes;                      !- Part of Total Floor Area

ZONE,
    Block Poly_87_Residential_3 Storey 13,    !- Name
    0,                        !- Direction of Relative North
    0,                        !- X Origin
    0,                        !- Y Origin
    0,                        !- Z Origin
    1,                        !- Type
    1,                        !- Multiplier
    autocalculate,            !- Ceiling Height
    autocalculate,            !- Volume
    autocalculate,            !- Floor Area
    ,                         !- Zone Inside Convection Algorithm
    ,                         !- Zone Outside Convection Algorithm
    Yes;                      !- Part of Total Floor Area

ZONE,
    Block Poly_87_Residential_3 Storey 14,    !- Name
    0,                        !- Direction of Relative North
    0,                        !- X Origin
    0,                        !- Y Origin
    0,                        !- Z Origin
    1,                        !- Type
    1,                        !- Multiplier
    autocalculate,            !- Ceiling Height
    autocalculate,            !- Volume
    autocalculate,            !- Floor Area
    ,                         !- Zone Inside Convection Algorithm
    ,                         !- Zone Outside Convection Algorithm
    Yes;                      !- Part of Total Floor Area

ZONE,
    Block Poly_87_Residential_3 Storey 15,    !- Name
    0,                        !- Direction of Relative North
    0,                        !- X Origin
    0,                        !- Y Origin
    0,                        !- Z Origin
    1,                        !- Type
    1,                        !- Multiplier
    autocalculate,            !- Ceiling Height
    autocalculate,            !- Volume
    autocalculate,            !- Floor Area
    ,                         !- Zone Inside Convection Algorithm
    ,                         !- Zone Outside Convection Algorithm
    Yes;                      !- Part of Total Floor Area

ZONE,
    Block Poly_87_Residential_3 Storey 16,    !- Name
    0,                        !- Direction of Relative North
    0,                        !- X Origin
    0,                        !- Y Origin
    0,                        !- Z Origin
    1,                        !- Type
    1,                        !- Multiplier
    autocalculate,            !- Ceiling Height
    autocalculate,            !- Volume
    autocalculate,            !- Floor Area
    ,                         !- Zone Inside Convection Algorithm
    ,                         !- Zone Outside Convection Algorithm
    Yes;                      !- Part of Total Floor Area

ZONE,
    Block Poly_87_Residential_3 Storey 17,    !- Name
    0,                        !- Direction of Relative North
    0,                        !- X Origin
    0,                        !- Y Origin
    0,                        !- Z Origin
    1,                        !- Type
    1,                        !- Multiplier
    autocalculate,            !- Ceiling Height
    autocalculate,            !- Volume
    autocalculate,            !- Floor Area
    ,                         !- Zone Inside Convection Algorithm
    ,                         !- Zone Outside Convection Algorithm
    Yes;                      !- Part of Total Floor Area

ZONE,
    Block Poly_87_Residential_3 Storey 18,    !- Name
    0,                        !- Direction of Relative North
    0,                        !- X Origin
    0,                        !- Y Origin
    0,                        !- Z Origin
    1,                        !- Type
    1,                        !- Multiplier
    autocalculate,            !- Ceiling Height
    autocalculate,            !- Volume
    autocalculate,            !- Floor Area
    ,                         !- Zone Inside Convection Algorithm
    ,                         !- Zone Outside Convection Algorithm
    Yes;                      !- Part of Total Floor Area

ZONE,
    Block Poly_87_Residential_3 Storey 19,    !- Name
    0,                        !- Direction of Relative North
    0,                        !- X Origin
    0,                        !- Y Origin
    0,                        !- Z Origin
    1,                        !- Type
    1,                        !- Multiplier
    autocalculate,            !- Ceiling Height
    autocalculate,            !- Volume
    autocalculate,            !- Floor Area
    ,                         !- Zone Inside Convection Algorithm
    ,                         !- Zone Outside Convection Algorithm
    Yes;                      !- Part of Total Floor Area

ZONE,
    Block Poly_87_Residential_3 Storey 20,    !- Name
    0,                        !- Direction of Relative North
    0,                        !- X Origin
    0,                        !- Y Origin
    0,                        !- Z Origin
    1,                        !- Type
    1,                        !- Multiplier
    autocalculate,            !- Ceiling Height
    autocalculate,            !- Volume
    autocalculate,            !- Floor Area
    ,                         !- Zone Inside Convection Algorithm
    ,                         !- Zone Outside Convection Algorithm
    Yes;                      !- Part of Total Floor Area

ZONE,
    Block Poly_87_Residential_3 Storey 21,    !- Name
    0,                        !- Direction of Relative North
    0,                        !- X Origin
    0,                        !- Y Origin
    0,                        !- Z Origin
    1,                        !- Type
    1,                        !- Multiplier
    autocalculate,            !- Ceiling Height
    autocalculate,            !- Volume
    autocalculate,            !- Floor Area
    ,                         !- Zone Inside Convection Algorithm
    ,                         !- Zone Outside Convection Algorithm
    Yes;                      !- Part of Total Floor Area

BUILDINGSURFACE:DETAILED,
    Block Poly_87_Residential_3 Storey 0 Wall 0001,    !- Name
    Wall,                     !- Surface Type
    HSCWZ_Residential_2005_ExtWall,    !- Construction Name
    Block Poly_87_Residential_3 Storey 0,    !- Zone Name
    ,                         !- Space Name
    Outdoors,                 !- Outside Boundary Condition
    ,                         !- Outside Boundary Condition Object
    SunExposed,               !- Sun Exposure
    WindExposed,              !- Wind Exposure
    autocalculate,            !- View Factor to Ground
    autocalculate,            !- Number of Vertices
    8.308274807932321,        !- Vertex 1 Xcoordinate
    0.6274677002802491,       !- Vertex 1 Ycoordinate
    3,                        !- Vertex 1 Zcoordinate
    8.308274807932321,        !- Vertex 2 Xcoordinate
    0.6274677002802491,       !- Vertex 2 Ycoordinate
    0,                        !- Vertex 2 Zcoordinate
    18.9615307400818,         !- Vertex 3 Xcoordinate
    0.4852878404781222,       !- Vertex 3 Ycoordinate
    0,                        !- Vertex 3 Zcoordinate
    18.9615307400818,         !- Vertex 4 Xcoordinate
    0.4852878404781222,       !- Vertex 4 Ycoordinate
    3;                        !- Vertex 4 Zcoordinate

BUILDINGSURFACE:DETAILED,
    Block Poly_87_Residential_3 Storey 0 Wall 0002,    !- Name
    Wall,                     !- Surface Type
    HSCWZ_Residential_2005_ExtWall,    !- Construction Name
    Block Poly_87_Residential_3 Storey 0,    !- Zone Name
    ,                         !- Space Name
    Outdoors,                 !- Outside Boundary Condition
    ,                         !- Outside Boundary Condition Object
    SunExposed,               !- Sun Exposure
    WindExposed,              !- Wind Exposure
    autocalculate,            !- View Factor to Ground
    autocalculate,            !- Number of Vertices
    18.9615307400818,         !- Vertex 1 Xcoordinate
    0.4852878404781222,       !- Vertex 1 Ycoordinate
    3,                        !- Vertex 1 Zcoordinate
    18.9615307400818,         !- Vertex 2 Xcoordinate
    0.4852878404781222,       !- Vertex 2 Ycoordinate
    0,                        !- Vertex 2 Zcoordinate
    19.1173019867274,         !- Vertex 3 Xcoordinate
    5.028793456964195,        !- Vertex 3 Ycoordinate
    0,                        !- Vertex 3 Zcoordinate
    19.1173019867274,         !- Vertex 4 Xcoordinate
    5.028793456964195,        !- Vertex 4 Ycoordinate
    3;                        !- Vertex 4 Zcoordinate

BUILDINGSURFACE:DETAILED,
    Block Poly_87_Residential_3 Storey 0 Wall 0003,    !- Name
    Wall,                     !- Surface Type
    HSCWZ_Residential_2005_ExtWall,    !- Construction Name
    Block Poly_87_Residential_3 Storey 0,    !- Zone Name
    ,                         !- Space Name
    Outdoors,                 !- Outside Boundary Condition
    ,                         !- Outside Boundary Condition Object
    SunExposed,               !- Sun Exposure
    WindExposed,              !- Wind Exposure
    autocalculate,            !- View Factor to Ground
    autocalculate,            !- Number of Vertices
    19.1173019867274,         !- Vertex 1 Xcoordinate
    5.028793456964195,        !- Vertex 1 Ycoordinate
    3,                        !- Vertex 1 Zcoordinate
    19.1173019867274,         !- Vertex 2 Xcoordinate
    5.028793456964195,        !- Vertex 2 Ycoordinate
    0,                        !- Vertex 2 Zcoordinate
    36.42883482348407,        !- Vertex 3 Xcoordinate
    4.79777431068942,         !- Vertex 3 Ycoordinate
    0,                        !- Vertex 3 Zcoordinate
    36.42883482348407,        !- Vertex 4 Xcoordinate
    4.79777431068942,         !- Vertex 4 Ycoordinate
    3;                        !- Vertex 4 Zcoordinate

BUILDINGSURFACE:DETAILED,
    Block Poly_87_Residential_3 Storey 0 Wall 0004,    !- Name
    Wall,                     !- Surface Type
    HSCWZ_Residential_2005_ExtWall,    !- Construction Name
    Block Poly_87_Residential_3 Storey 0,    !- Zone Name
    ,                         !- Space Name
    Outdoors,                 !- Outside Boundary Condition
    ,                         !- Outside Boundary Condition Object
    SunExposed,               !- Sun Exposure
    WindExposed,              !- Wind Exposure
    autocalculate,            !- View Factor to Ground
    autocalculate,            !- Number of Vertices
    36.42883482348407,        !- Vertex 1 Xcoordinate
    4.79777431068942,         !- Vertex 1 Ycoordinate
    3,                        !- Vertex 1 Zcoordinate
    36.42883482348407,        !- Vertex 2 Xcoordinate
    4.79777431068942,         !- Vertex 2 Ycoordinate
    0,                        !- Vertex 2 Zcoordinate
    36.36671029863646,        !- Vertex 3 Xcoordinate
    0.1421512835659086,       !- Vertex 3 Ycoordinate
    0,                        !- Vertex 3 Zcoordinate
    36.36671029863646,        !- Vertex 4 Xcoordinate
    0.1421512835659086,       !- Vertex 4 Ycoordinate
    3;                        !- Vertex 4 Zcoordinate

BUILDINGSURFACE:DETAILED,
    Block Poly_87_Residential_3 Storey 0 Wall 0005,    !- Name
    Wall,                     !- Surface Type
    HSCWZ_Residential_2005_ExtWall,    !- Construction Name
    Block Poly_87_Residential_3 Storey 0,    !- Zone Name
    ,                         !- Space Name
    Outdoors,                 !- Outside Boundary Condition
    ,                         !- Outside Boundary Condition Object
    SunExposed,               !- Sun Exposure
    WindExposed,              !- Wind Exposure
    autocalculate,            !- View Factor to Ground
    autocalculate,            !- Number of Vertices
    36.36671029863646,        !- Vertex 1 Xcoordinate
    0.1421512835659086,       !- Vertex 1 Ycoordinate
    3,                        !- Vertex 1 Zcoordinate
    36.36671029863646,        !- Vertex 2 Xcoordinate
    0.1421512835659086,       !- Vertex 2 Ycoordinate
    0,                        !- Vertex 2 Zcoordinate
    47.01996569457697,        !- Vertex 3 Xcoordinate
    0,                        !- Vertex 3 Ycoordinate
    0,                        !- Vertex 3 Zcoordinate
    47.01996569457697,        !- Vertex 4 Xcoordinate
    0,                        !- Vertex 4 Ycoordinate
    3;                        !- Vertex 4 Zcoordinate

BUILDINGSURFACE:DETAILED,
    Block Poly_87_Residential_3 Storey 0 Wall 0006,    !- Name
    Wall,                     !- Surface Type
    HSCWZ_Residential_2005_ExtWall,    !- Construction Name
    Block Poly_87_Residential_3 Storey 0,    !- Zone Name
    ,                         !- Space Name
    Outdoors,                 !- Outside Boundary Condition
    ,                         !- Outside Boundary Condition Object
    SunExposed,               !- Sun Exposure
    WindExposed,              !- Wind Exposure
    autocalculate,            !- View Factor to Ground
    autocalculate,            !- Number of Vertices
    47.01996569457697,        !- Vertex 1 Xcoordinate
    0,                        !- Vertex 1 Ycoordinate
    3,                        !- Vertex 1 Zcoordinate
    47.01996569457697,        !- Vertex 2 Xcoordinate
    0,                        !- Vertex 2 Ycoordinate
    0,                        !- Vertex 2 Zcoordinate
    47.17720378719969,        !- Vertex 3 Xcoordinate
    4.654353759717196,        !- Vertex 3 Ycoordinate
    0,                        !- Vertex 3 Zcoordinate
    47.17720378719969,        !- Vertex 4 Xcoordinate
    4.654353759717196,        !- Vertex 4 Ycoordinate
    3;                        !- Vertex 4 Zcoordinate

BUILDINGSURFACE:DETAILED,
    Block Poly_87_Residential_3 Storey 0 Wall 0007,    !- Name
    Wall,                     !- Surface Type
    HSCWZ_Residential_2005_ExtWall,    !- Construction Name
    Block Poly_87_Residential_3 Storey 0,    !- Zone Name
    ,                         !- Space Name
    Outdoors,                 !- Outside Boundary Condition
    ,                         !- Outside Boundary Condition Object
    SunExposed,               !- Sun Exposure
    WindExposed,              !- Wind Exposure
    autocalculate,            !- View Factor to Ground
    autocalculate,            !- Number of Vertices
    47.17720378719969,        !- Vertex 1 Xcoordinate
    4.654353759717196,        !- Vertex 1 Ycoordinate
    3,                        !- Vertex 1 Zcoordinate
    47.17720378719969,        !- Vertex 2 Xcoordinate
    4.654353759717196,        !- Vertex 2 Ycoordinate
    0,                        !- Vertex 2 Zcoordinate
    56.211964038957376,       !- Vertex 3 Xcoordinate
    4.422939342446625,        !- Vertex 3 Ycoordinate
    0,                        !- Vertex 3 Zcoordinate
    56.211964038957376,       !- Vertex 4 Xcoordinate
    4.422939342446625,        !- Vertex 4 Ycoordinate
    3;                        !- Vertex 4 Zcoordinate

BUILDINGSURFACE:DETAILED,
    Block Poly_87_Residential_3 Storey 0 Wall 0008,    !- Name
    Wall,                     !- Surface Type
    HSCWZ_Residential_2005_ExtWall,    !- Construction Name
    Block Poly_87_Residential_3 Storey 0,    !- Zone Name
    ,                         !- Space Name
    Outdoors,                 !- Outside Boundary Condition
    ,                         !- Outside Boundary Condition Object
    SunExposed,               !- Sun Exposure
    WindExposed,              !- Wind Exposure
    autocalculate,            !- View Factor to Ground
    autocalculate,            !- Number of Vertices
    56.211964038957376,       !- Vertex 1 Xcoordinate
    4.422939342446625,        !- Vertex 1 Ycoordinate
    3,                        !- Vertex 1 Zcoordinate
    56.211964038957376,       !- Vertex 2 Xcoordinate
    4.422939342446625,        !- Vertex 2 Ycoordinate
    0,                        !- Vertex 2 Zcoordinate
    56.239598526794,          !- Vertex 3 Xcoordinate
    13.62460599699989,        !- Vertex 3 Ycoordinate
    0,                        !- Vertex 3 Zcoordinate
    56.239598526794,          !- Vertex 4 Xcoordinate
    13.62460599699989,        !- Vertex 4 Ycoordinate
    3;                        !- Vertex 4 Zcoordinate

BUILDINGSURFACE:DETAILED,
    Block Poly_87_Residential_3 Storey 0 Wall 0009,    !- Name
    Wall,                     !- Surface Type
    HSCWZ_Residential_2005_ExtWall,    !- Construction Name
    Block Poly_87_Residential_3 Storey 0,    !- Zone Name
    ,                         !- Space Name
    Outdoors,                 !- Outside Boundary Condition
    ,                         !- Outside Boundary Condition Object
    SunExposed,               !- Sun Exposure
    WindExposed,              !- Wind Exposure
    autocalculate,            !- View Factor to Ground
    autocalculate,            !- Number of Vertices
    56.239598526794,          !- Vertex 1 Xcoordinate
    13.62460599699989,        !- Vertex 1 Ycoordinate
    3,                        !- Vertex 1 Zcoordinate
    56.239598526794,          !- Vertex 2 Xcoordinate
    13.62460599699989,        !- Vertex 2 Ycoordinate
    0,                        !- Vertex 2 Zcoordinate
    0.1228021571296267,       !- Vertex 3 Xcoordinate
    14.595210153609514,       !- Vertex 3 Ycoordinate
    0,                        !- Vertex 3 Zcoordinate
    0.1228021571296267,       !- Vertex 4 Xcoordinate
    14.595210153609514,       !- Vertex 4 Ycoordinate
    3;                        !- Vertex 4 Zcoordinate

BUILDINGSURFACE:DETAILED,
    Block Poly_87_Residential_3 Storey 0 Wall 0010,    !- Name
    Wall,                     !- Surface Type
    HSCWZ_Residential_2005_ExtWall,    !- Construction Name
    Block Poly_87_Residential_3 Storey 0,    !- Zone Name
    ,                         !- Space Name
    Outdoors,                 !- Outside Boundary Condition
    ,                         !- Outside Boundary Condition Object
    SunExposed,               !- Sun Exposure
    WindExposed,              !- Wind Exposure
    autocalculate,            !- View Factor to Ground
    autocalculate,            !- Number of Vertices
    0.1228021571296267,       !- Vertex 1 Xcoordinate
    14.595210153609514,       !- Vertex 1 Ycoordinate
    3,                        !- Vertex 1 Zcoordinate
    0.1228021571296267,       !- Vertex 2 Xcoordinate
    14.595210153609514,       !- Vertex 2 Ycoordinate
    0,                        !- Vertex 2 Zcoordinate
    0,                        !- Vertex 3 Xcoordinate
    5.394811453763396,        !- Vertex 3 Ycoordinate
    0,                        !- Vertex 3 Zcoordinate
    0,                        !- Vertex 4 Xcoordinate
    5.394811453763396,        !- Vertex 4 Ycoordinate
    3;                        !- Vertex 4 Zcoordinate

BUILDINGSURFACE:DETAILED,
    Block Poly_87_Residential_3 Storey 0 Wall 0011,    !- Name
    Wall,                     !- Surface Type
    HSCWZ_Residential_2005_ExtWall,    !- Construction Name
    Block Poly_87_Residential_3 Storey 0,    !- Zone Name
    ,                         !- Space Name
    Outdoors,                 !- Outside Boundary Condition
    ,                         !- Outside Boundary Condition Object
    SunExposed,               !- Sun Exposure
    WindExposed,              !- Wind Exposure
    autocalculate,            !- View Factor to Ground
    autocalculate,            !- Number of Vertices
    0,                        !- Vertex 1 Xcoordinate
    5.394811453763396,        !- Vertex 1 Ycoordinate
    3,                        !- Vertex 1 Zcoordinate
    0,                        !- Vertex 2 Xcoordinate
    5.394811453763396,        !- Vertex 2 Ycoordinate
    0,                        !- Vertex 2 Zcoordinate
    8.370411821699236,        !- Vertex 3 Xcoordinate
    5.283091011922807,        !- Vertex 3 Ycoordinate
    0,                        !- Vertex 3 Zcoordinate
    8.370411821699236,        !- Vertex 4 Xcoordinate
    5.283091011922807,        !- Vertex 4 Ycoordinate
    3;                        !- Vertex 4 Zcoordinate

BUILDINGSURFACE:DETAILED,
    Block Poly_87_Residential_3 Storey 0 Wall 0012,    !- Name
    Wall,                     !- Surface Type
    HSCWZ_Residential_2005_ExtWall,    !- Construction Name
    Block Poly_87_Residential_3 Storey 0,    !- Zone Name
    ,                         !- Space Name
    Outdoors,                 !- Outside Boundary Condition
    ,                         !- Outside Boundary Condition Object
    SunExposed,               !- Sun Exposure
    WindExposed,              !- Wind Exposure
    autocalculate,            !- View Factor to Ground
    autocalculate,            !- Number of Vertices
    8.370411821699236,        !- Vertex 1 Xcoordinate
    5.283091011922807,        !- Vertex 1 Ycoordinate
    3,                        !- Vertex 1 Zcoordinate
    8.370411821699236,        !- Vertex 2 Xcoordinate
    5.283091011922807,        !- Vertex 2 Ycoordinate
    0,                        !- Vertex 2 Zcoordinate
    8.308274807932321,        !- Vertex 3 Xcoordinate
    0.6274677002802491,       !- Vertex 3 Ycoordinate
    0,                        !- Vertex 3 Zcoordinate
    8.308274807932321,        !- Vertex 4 Xcoordinate
    0.6274677002802491,       !- Vertex 4 Ycoordinate
    3;                        !- Vertex 4 Zcoordinate

BUILDINGSURFACE:DETAILED,
    Block Poly_87_Residential_3 Storey 0 Floor 0001,    !- Name
    Floor,                    !- Surface Type
    HSCWZ_Residential_2005_FloorGround,    !- Construction Name
    Block Poly_87_Residential_3 Storey 0,    !- Zone Name
    ,                         !- Space Name
    Ground,                   !- Outside Boundary Condition
    ,                         !- Outside Boundary Condition Object
    NoSun,                    !- Sun Exposure
    NoWind,                   !- Wind Exposure
    autocalculate,            !- View Factor to Ground
    autocalculate,            !- Number of Vertices
    56.239598526794,          !- Vertex 1 Xcoordinate
    13.62460599699989,        !- Vertex 1 Ycoordinate
    0,                        !- Vertex 1 Zcoordinate
    56.211964038957376,       !- Vertex 2 Xcoordinate
    4.422939342446625,        !- Vertex 2 Ycoordinate
    0,                        !- Vertex 2 Zcoordinate
    47.17720378719969,        !- Vertex 3 Xcoordinate
    4.654353759717196,        !- Vertex 3 Ycoordinate
    0,                        !- Vertex 3 Zcoordinate
    47.01996569457697,        !- Vertex 4 Xcoordinate
    0,                        !- Vertex 4 Ycoordinate
    0,                        !- Vertex 4 Zcoordinate
    36.36671029863646,        !- Vertex 5 Xcoordinate
    0.1421512835659086,       !- Vertex 5 Ycoordinate
    0,                        !- Vertex 5 Zcoordinate
    36.42883482348407,        !- Vertex 6 Xcoordinate
    4.79777431068942,         !- Vertex 6 Ycoordinate
    0,                        !- Vertex 6 Zcoordinate
    19.1173019867274,         !- Vertex 7 Xcoordinate
    5.028793456964195,        !- Vertex 7 Ycoordinate
    0,                        !- Vertex 7 Zcoordinate
    18.9615307400818,         !- Vertex 8 Xcoordinate
    0.4852878404781222,       !- Vertex 8 Ycoordinate
    0,                        !- Vertex 8 Zcoordinate
    8.308274807932321,        !- Vertex 9 Xcoordinate
    0.6274677002802491,       !- Vertex 9 Ycoordinate
    0,                        !- Vertex 9 Zcoordinate
    8.370411821699236,        !- Vertex 10 Xcoordinate
    5.283091011922807,        !- Vertex 10 Ycoordinate
    0,                        !- Vertex 10 Zcoordinate
    0,                        !- Vertex 11 Xcoordinate
    5.394811453763396,        !- Vertex 11 Ycoordinate
    0,                        !- Vertex 11 Zcoordinate
    0.1228021571296267,       !- Vertex 12 Xcoordinate
    14.595210153609514,       !- Vertex 12 Ycoordinate
    0;                        !- Vertex 12 Zcoordinate

BUILDINGSURFACE:DETAILED,
    Block Poly_87_Residential_3 Storey 1 Wall 0001,    !- Name
    Wall,                     !- Surface Type
    HSCWZ_Residential_2005_ExtWall,    !- Construction Name
    Block Poly_87_Residential_3 Storey 1,    !- Zone Name
    ,                         !- Space Name
    Outdoors,                 !- Outside Boundary Condition
    ,                         !- Outside Boundary Condition Object
    SunExposed,               !- Sun Exposure
    WindExposed,              !- Wind Exposure
    autocalculate,            !- View Factor to Ground
    autocalculate,            !- Number of Vertices
    8.308274807932321,        !- Vertex 1 Xcoordinate
    0.6274677002802491,       !- Vertex 1 Ycoordinate
    6,                        !- Vertex 1 Zcoordinate
    8.308274807932321,        !- Vertex 2 Xcoordinate
    0.6274677002802491,       !- Vertex 2 Ycoordinate
    3,                        !- Vertex 2 Zcoordinate
    18.9615307400818,         !- Vertex 3 Xcoordinate
    0.4852878404781222,       !- Vertex 3 Ycoordinate
    3,                        !- Vertex 3 Zcoordinate
    18.9615307400818,         !- Vertex 4 Xcoordinate
    0.4852878404781222,       !- Vertex 4 Ycoordinate
    6;                        !- Vertex 4 Zcoordinate

BUILDINGSURFACE:DETAILED,
    Block Poly_87_Residential_3 Storey 1 Wall 0002,    !- Name
    Wall,                     !- Surface Type
    HSCWZ_Residential_2005_ExtWall,    !- Construction Name
    Block Poly_87_Residential_3 Storey 1,    !- Zone Name
    ,                         !- Space Name
    Outdoors,                 !- Outside Boundary Condition
    ,                         !- Outside Boundary Condition Object
    SunExposed,               !- Sun Exposure
    WindExposed,              !- Wind Exposure
    autocalculate,            !- View Factor to Ground
    autocalculate,            !- Number of Vertices
    18.9615307400818,         !- Vertex 1 Xcoordinate
    0.4852878404781222,       !- Vertex 1 Ycoordinate
    6,                        !- Vertex 1 Zcoordinate
    18.9615307400818,         !- Vertex 2 Xcoordinate
    0.4852878404781222,       !- Vertex 2 Ycoordinate
    3,                        !- Vertex 2 Zcoordinate
    19.1173019867274,         !- Vertex 3 Xcoordinate
    5.028793456964195,        !- Vertex 3 Ycoordinate
    3,                        !- Vertex 3 Zcoordinate
    19.1173019867274,         !- Vertex 4 Xcoordinate
    5.028793456964195,        !- Vertex 4 Ycoordinate
    6;                        !- Vertex 4 Zcoordinate

BUILDINGSURFACE:DETAILED,
    Block Poly_87_Residential_3 Storey 1 Wall 0003,    !- Name
    Wall,                     !- Surface Type
    HSCWZ_Residential_2005_ExtWall,    !- Construction Name
    Block Poly_87_Residential_3 Storey 1,    !- Zone Name
    ,                         !- Space Name
    Outdoors,                 !- Outside Boundary Condition
    ,                         !- Outside Boundary Condition Object
    SunExposed,               !- Sun Exposure
    WindExposed,              !- Wind Exposure
    autocalculate,            !- View Factor to Ground
    autocalculate,            !- Number of Vertices
    19.1173019867274,         !- Vertex 1 Xcoordinate
    5.028793456964195,        !- Vertex 1 Ycoordinate
    6,                        !- Vertex 1 Zcoordinate
    19.1173019867274,         !- Vertex 2 Xcoordinate
    5.028793456964195,        !- Vertex 2 Ycoordinate
    3,                        !- Vertex 2 Zcoordinate
    36.42883482348407,        !- Vertex 3 Xcoordinate
    4.79777431068942,         !- Vertex 3 Ycoordinate
    3,                        !- Vertex 3 Zcoordinate
    36.42883482348407,        !- Vertex 4 Xcoordinate
    4.79777431068942,         !- Vertex 4 Ycoordinate
    6;                        !- Vertex 4 Zcoordinate

BUILDINGSURFACE:DETAILED,
    Block Poly_87_Residential_3 Storey 1 Wall 0004,    !- Name
    Wall,                     !- Surface Type
    HSCWZ_Residential_2005_ExtWall,    !- Construction Name
    Block Poly_87_Residential_3 Storey 1,    !- Zone Name
    ,                         !- Space Name
    Outdoors,                 !- Outside Boundary Condition
    ,                         !- Outside Boundary Condition Object
    SunExposed,               !- Sun Exposure
    WindExposed,              !- Wind Exposure
    autocalculate,            !- View Factor to Ground
    autocalculate,            !- Number of Vertices
    36.42883482348407,        !- Vertex 1 Xcoordinate
    4.79777431068942,         !- Vertex 1 Ycoordinate
    6,                        !- Vertex 1 Zcoordinate
    36.42883482348407,        !- Vertex 2 Xcoordinate
    4.79777431068942,         !- Vertex 2 Ycoordinate
    3,                        !- Vertex 2 Zcoordinate
    36.36671029863646,        !- Vertex 3 Xcoordinate
    0.1421512835659086,       !- Vertex 3 Ycoordinate
    3,                        !- Vertex 3 Zcoordinate
    36.36671029863646,        !- Vertex 4 Xcoordinate
    0.1421512835659086,       !- Vertex 4 Ycoordinate
    6;                        !- Vertex 4 Zcoordinate

BUILDINGSURFACE:DETAILED,
    Block Poly_87_Residential_3 Storey 1 Wall 0005,    !- Name
    Wall,                     !- Surface Type
    HSCWZ_Residential_2005_ExtWall,    !- Construction Name
    Block Poly_87_Residential_3 Storey 1,    !- Zone Name
    ,                         !- Space Name
    Outdoors,                 !- Outside Boundary Condition
    ,                         !- Outside Boundary Condition Object
    SunExposed,               !- Sun Exposure
    WindExposed,              !- Wind Exposure
    autocalculate,            !- View Factor to Ground
    autocalculate,            !- Number of Vertices
    36.36671029863646,        !- Vertex 1 Xcoordinate
    0.1421512835659086,       !- Vertex 1 Ycoordinate
    6,                        !- Vertex 1 Zcoordinate
    36.36671029863646,        !- Vertex 2 Xcoordinate
    0.1421512835659086,       !- Vertex 2 Ycoordinate
    3,                        !- Vertex 2 Zcoordinate
    47.01996569457697,        !- Vertex 3 Xcoordinate
    0,                        !- Vertex 3 Ycoordinate
    3,                        !- Vertex 3 Zcoordinate
    47.01996569457697,        !- Vertex 4 Xcoordinate
    0,                        !- Vertex 4 Ycoordinate
    6;                        !- Vertex 4 Zcoordinate

BUILDINGSURFACE:DETAILED,
    Block Poly_87_Residential_3 Storey 1 Wall 0006,    !- Name
    Wall,                     !- Surface Type
    HSCWZ_Residential_2005_ExtWall,    !- Construction Name
    Block Poly_87_Residential_3 Storey 1,    !- Zone Name
    ,                         !- Space Name
    Outdoors,                 !- Outside Boundary Condition
    ,                         !- Outside Boundary Condition Object
    SunExposed,               !- Sun Exposure
    WindExposed,              !- Wind Exposure
    autocalculate,            !- View Factor to Ground
    autocalculate,            !- Number of Vertices
    47.01996569457697,        !- Vertex 1 Xcoordinate
    0,                        !- Vertex 1 Ycoordinate
    6,                        !- Vertex 1 Zcoordinate
    47.01996569457697,        !- Vertex 2 Xcoordinate
    0,                        !- Vertex 2 Ycoordinate
    3,                        !- Vertex 2 Zcoordinate
    47.17720378719969,        !- Vertex 3 Xcoordinate
    4.654353759717196,        !- Vertex 3 Ycoordinate
    3,                        !- Vertex 3 Zcoordinate
    47.17720378719969,        !- Vertex 4 Xcoordinate
    4.654353759717196,        !- Vertex 4 Ycoordinate
    6;                        !- Vertex 4 Zcoordinate

BUILDINGSURFACE:DETAILED,
    Block Poly_87_Residential_3 Storey 1 Wall 0007,    !- Name
    Wall,                     !- Surface Type
    HSCWZ_Residential_2005_ExtWall,    !- Construction Name
    Block Poly_87_Residential_3 Storey 1,    !- Zone Name
    ,                         !- Space Name
    Outdoors,                 !- Outside Boundary Condition
    ,                         !- Outside Boundary Condition Object
    SunExposed,               !- Sun Exposure
    WindExposed,              !- Wind Exposure
    autocalculate,            !- View Factor to Ground
    autocalculate,            !- Number of Vertices
    47.17720378719969,        !- Vertex 1 Xcoordinate
    4.654353759717196,        !- Vertex 1 Ycoordinate
    6,                        !- Vertex 1 Zcoordinate
    47.17720378719969,        !- Vertex 2 Xcoordinate
    4.654353759717196,        !- Vertex 2 Ycoordinate
    3,                        !- Vertex 2 Zcoordinate
    56.211964038957376,       !- Vertex 3 Xcoordinate
    4.422939342446625,        !- Vertex 3 Ycoordinate
    3,                        !- Vertex 3 Zcoordinate
    56.211964038957376,       !- Vertex 4 Xcoordinate
    4.422939342446625,        !- Vertex 4 Ycoordinate
    6;                        !- Vertex 4 Zcoordinate

BUILDINGSURFACE:DETAILED,
    Block Poly_87_Residential_3 Storey 1 Wall 0008,    !- Name
    Wall,                     !- Surface Type
    HSCWZ_Residential_2005_ExtWall,    !- Construction Name
    Block Poly_87_Residential_3 Storey 1,    !- Zone Name
    ,                         !- Space Name
    Outdoors,                 !- Outside Boundary Condition
    ,                         !- Outside Boundary Condition Object
    SunExposed,               !- Sun Exposure
    WindExposed,              !- Wind Exposure
    autocalculate,            !- View Factor to Ground
    autocalculate,            !- Number of Vertices
    56.211964038957376,       !- Vertex 1 Xcoordinate
    4.422939342446625,        !- Vertex 1 Ycoordinate
    6,                        !- Vertex 1 Zcoordinate
    56.211964038957376,       !- Vertex 2 Xcoordinate
    4.422939342446625,        !- Vertex 2 Ycoordinate
    3,                        !- Vertex 2 Zcoordinate
    56.239598526794,          !- Vertex 3 Xcoordinate
    13.62460599699989,        !- Vertex 3 Ycoordinate
    3,                        !- Vertex 3 Zcoordinate
    56.239598526794,          !- Vertex 4 Xcoordinate
    13.62460599699989,        !- Vertex 4 Ycoordinate
    6;                        !- Vertex 4 Zcoordinate

BUILDINGSURFACE:DETAILED,
    Block Poly_87_Residential_3 Storey 1 Wall 0009,    !- Name
    Wall,                     !- Surface Type
    HSCWZ_Residential_2005_ExtWall,    !- Construction Name
    Block Poly_87_Residential_3 Storey 1,    !- Zone Name
    ,                         !- Space Name
    Outdoors,                 !- Outside Boundary Condition
    ,                         !- Outside Boundary Condition Object
    SunExposed,               !- Sun Exposure
    WindExposed,              !- Wind Exposure
    autocalculate,            !- View Factor to Ground
    autocalculate,            !- Number of Vertices
    56.239598526794,          !- Vertex 1 Xcoordinate
    13.62460599699989,        !- Vertex 1 Ycoordinate
    6,                        !- Vertex 1 Zcoordinate
    56.239598526794,          !- Vertex 2 Xcoordinate
    13.62460599699989,        !- Vertex 2 Ycoordinate
    3,                        !- Vertex 2 Zcoordinate
    0.1228021571296267,       !- Vertex 3 Xcoordinate
    14.595210153609514,       !- Vertex 3 Ycoordinate
    3,                        !- Vertex 3 Zcoordinate
    0.1228021571296267,       !- Vertex 4 Xcoordinate
    14.595210153609514,       !- Vertex 4 Ycoordinate
    6;                        !- Vertex 4 Zcoordinate

BUILDINGSURFACE:DETAILED,
    Block Poly_87_Residential_3 Storey 1 Wall 0010,    !- Name
    Wall,                     !- Surface Type
    HSCWZ_Residential_2005_ExtWall,    !- Construction Name
    Block Poly_87_Residential_3 Storey 1,    !- Zone Name
    ,                         !- Space Name
    Outdoors,                 !- Outside Boundary Condition
    ,                         !- Outside Boundary Condition Object
    SunExposed,               !- Sun Exposure
    WindExposed,              !- Wind Exposure
    autocalculate,            !- View Factor to Ground
    autocalculate,            !- Number of Vertices
    0.1228021571296267,       !- Vertex 1 Xcoordinate
    14.595210153609514,       !- Vertex 1 Ycoordinate
    6,                        !- Vertex 1 Zcoordinate
    0.1228021571296267,       !- Vertex 2 Xcoordinate
    14.595210153609514,       !- Vertex 2 Ycoordinate
    3,                        !- Vertex 2 Zcoordinate
    0,                        !- Vertex 3 Xcoordinate
    5.394811453763396,        !- Vertex 3 Ycoordinate
    3,                        !- Vertex 3 Zcoordinate
    0,                        !- Vertex 4 Xcoordinate
    5.394811453763396,        !- Vertex 4 Ycoordinate
    6;                        !- Vertex 4 Zcoordinate

BUILDINGSURFACE:DETAILED,
    Block Poly_87_Residential_3 Storey 1 Wall 0011,    !- Name
    Wall,                     !- Surface Type
    HSCWZ_Residential_2005_ExtWall,    !- Construction Name
    Block Poly_87_Residential_3 Storey 1,    !- Zone Name
    ,                         !- Space Name
    Outdoors,                 !- Outside Boundary Condition
    ,                         !- Outside Boundary Condition Object
    SunExposed,               !- Sun Exposure
    WindExposed,              !- Wind Exposure
    autocalculate,            !- View Factor to Ground
    autocalculate,            !- Number of Vertices
    0,                        !- Vertex 1 Xcoordinate
    5.394811453763396,        !- Vertex 1 Ycoordinate
    6,                        !- Vertex 1 Zcoordinate
    0,                        !- Vertex 2 Xcoordinate
    5.394811453763396,        !- Vertex 2 Ycoordinate
    3,                        !- Vertex 2 Zcoordinate
    8.370411821699236,        !- Vertex 3 Xcoordinate
    5.283091011922807,        !- Vertex 3 Ycoordinate
    3,                        !- Vertex 3 Zcoordinate
    8.370411821699236,        !- Vertex 4 Xcoordinate
    5.283091011922807,        !- Vertex 4 Ycoordinate
    6;                        !- Vertex 4 Zcoordinate

BUILDINGSURFACE:DETAILED,
    Block Poly_87_Residential_3 Storey 1 Wall 0012,    !- Name
    Wall,                     !- Surface Type
    HSCWZ_Residential_2005_ExtWall,    !- Construction Name
    Block Poly_87_Residential_3 Storey 1,    !- Zone Name
    ,                         !- Space Name
    Outdoors,                 !- Outside Boundary Condition
    ,                         !- Outside Boundary Condition Object
    SunExposed,               !- Sun Exposure
    WindExposed,              !- Wind Exposure
    autocalculate,            !- View Factor to Ground
    autocalculate,            !- Number of Vertices
    8.370411821699236,        !- Vertex 1 Xcoordinate
    5.283091011922807,        !- Vertex 1 Ycoordinate
    6,                        !- Vertex 1 Zcoordinate
    8.370411821699236,        !- Vertex 2 Xcoordinate
    5.283091011922807,        !- Vertex 2 Ycoordinate
    3,                        !- Vertex 2 Zcoordinate
    8.308274807932321,        !- Vertex 3 Xcoordinate
    0.6274677002802491,       !- Vertex 3 Ycoordinate
    3,                        !- Vertex 3 Zcoordinate
    8.308274807932321,        !- Vertex 4 Xcoordinate
    0.6274677002802491,       !- Vertex 4 Ycoordinate
    6;                        !- Vertex 4 Zcoordinate

BUILDINGSURFACE:DETAILED,
    Block Poly_87_Residential_3 Storey 2 Wall 0001,    !- Name
    Wall,                     !- Surface Type
    HSCWZ_Residential_2005_ExtWall,    !- Construction Name
    Block Poly_87_Residential_3 Storey 2,    !- Zone Name
    ,                         !- Space Name
    Outdoors,                 !- Outside Boundary Condition
    ,                         !- Outside Boundary Condition Object
    SunExposed,               !- Sun Exposure
    WindExposed,              !- Wind Exposure
    autocalculate,            !- View Factor to Ground
    autocalculate,            !- Number of Vertices
    8.308274807932321,        !- Vertex 1 Xcoordinate
    0.6274677002802491,       !- Vertex 1 Ycoordinate
    9,                        !- Vertex 1 Zcoordinate
    8.308274807932321,        !- Vertex 2 Xcoordinate
    0.6274677002802491,       !- Vertex 2 Ycoordinate
    6,                        !- Vertex 2 Zcoordinate
    18.9615307400818,         !- Vertex 3 Xcoordinate
    0.4852878404781222,       !- Vertex 3 Ycoordinate
    6,                        !- Vertex 3 Zcoordinate
    18.9615307400818,         !- Vertex 4 Xcoordinate
    0.4852878404781222,       !- Vertex 4 Ycoordinate
    9;                        !- Vertex 4 Zcoordinate

BUILDINGSURFACE:DETAILED,
    Block Poly_87_Residential_3 Storey 2 Wall 0002,    !- Name
    Wall,                     !- Surface Type
    HSCWZ_Residential_2005_ExtWall,    !- Construction Name
    Block Poly_87_Residential_3 Storey 2,    !- Zone Name
    ,                         !- Space Name
    Outdoors,                 !- Outside Boundary Condition
    ,                         !- Outside Boundary Condition Object
    SunExposed,               !- Sun Exposure
    WindExposed,              !- Wind Exposure
    autocalculate,            !- View Factor to Ground
    autocalculate,            !- Number of Vertices
    18.9615307400818,         !- Vertex 1 Xcoordinate
    0.4852878404781222,       !- Vertex 1 Ycoordinate
    9,                        !- Vertex 1 Zcoordinate
    18.9615307400818,         !- Vertex 2 Xcoordinate
    0.4852878404781222,       !- Vertex 2 Ycoordinate
    6,                        !- Vertex 2 Zcoordinate
    19.1173019867274,         !- Vertex 3 Xcoordinate
    5.028793456964195,        !- Vertex 3 Ycoordinate
    6,                        !- Vertex 3 Zcoordinate
    19.1173019867274,         !- Vertex 4 Xcoordinate
    5.028793456964195,        !- Vertex 4 Ycoordinate
    9;                        !- Vertex 4 Zcoordinate

BUILDINGSURFACE:DETAILED,
    Block Poly_87_Residential_3 Storey 2 Wall 0003,    !- Name
    Wall,                     !- Surface Type
    HSCWZ_Residential_2005_ExtWall,    !- Construction Name
    Block Poly_87_Residential_3 Storey 2,    !- Zone Name
    ,                         !- Space Name
    Outdoors,                 !- Outside Boundary Condition
    ,                         !- Outside Boundary Condition Object
    SunExposed,               !- Sun Exposure
    WindExposed,              !- Wind Exposure
    autocalculate,            !- View Factor to Ground
    autocalculate,            !- Number of Vertices
    19.1173019867274,         !- Vertex 1 Xcoordinate
    5.028793456964195,        !- Vertex 1 Ycoordinate
    9,                        !- Vertex 1 Zcoordinate
    19.1173019867274,         !- Vertex 2 Xcoordinate
    5.028793456964195,        !- Vertex 2 Ycoordinate
    6,                        !- Vertex 2 Zcoordinate
    36.42883482348407,        !- Vertex 3 Xcoordinate
    4.79777431068942,         !- Vertex 3 Ycoordinate
    6,                        !- Vertex 3 Zcoordinate
    36.42883482348407,        !- Vertex 4 Xcoordinate
    4.79777431068942,         !- Vertex 4 Ycoordinate
    9;                        !- Vertex 4 Zcoordinate

BUILDINGSURFACE:DETAILED,
    Block Poly_87_Residential_3 Storey 2 Wall 0004,    !- Name
    Wall,                     !- Surface Type
    HSCWZ_Residential_2005_ExtWall,    !- Construction Name
    Block Poly_87_Residential_3 Storey 2,    !- Zone Name
    ,                         !- Space Name
    Outdoors,                 !- Outside Boundary Condition
    ,                         !- Outside Boundary Condition Object
    SunExposed,               !- Sun Exposure
    WindExposed,              !- Wind Exposure
    autocalculate,            !- View Factor to Ground
    autocalculate,            !- Number of Vertices
    36.42883482348407,        !- Vertex 1 Xcoordinate
    4.79777431068942,         !- Vertex 1 Ycoordinate
    9,                        !- Vertex 1 Zcoordinate
    36.42883482348407,        !- Vertex 2 Xcoordinate
    4.79777431068942,         !- Vertex 2 Ycoordinate
    6,                        !- Vertex 2 Zcoordinate
    36.36671029863646,        !- Vertex 3 Xcoordinate
    0.1421512835659086,       !- Vertex 3 Ycoordinate
    6,                        !- Vertex 3 Zcoordinate
    36.36671029863646,        !- Vertex 4 Xcoordinate
    0.1421512835659086,       !- Vertex 4 Ycoordinate
    9;                        !- Vertex 4 Zcoordinate

BUILDINGSURFACE:DETAILED,
    Block Poly_87_Residential_3 Storey 2 Wall 0005,    !- Name
    Wall,                     !- Surface Type
    HSCWZ_Residential_2005_ExtWall,    !- Construction Name
    Block Poly_87_Residential_3 Storey 2,    !- Zone Name
    ,                         !- Space Name
    Outdoors,                 !- Outside Boundary Condition
    ,                         !- Outside Boundary Condition Object
    SunExposed,               !- Sun Exposure
    WindExposed,              !- Wind Exposure
    autocalculate,            !- View Factor to Ground
    autocalculate,            !- Number of Vertices
    36.36671029863646,        !- Vertex 1 Xcoordinate
    0.1421512835659086,       !- Vertex 1 Ycoordinate
    9,                        !- Vertex 1 Zcoordinate
    36.36671029863646,        !- Vertex 2 Xcoordinate
    0.1421512835659086,       !- Vertex 2 Ycoordinate
    6,                        !- Vertex 2 Zcoordinate
    47.01996569457697,        !- Vertex 3 Xcoordinate
    0,                        !- Vertex 3 Ycoordinate
    6,                        !- Vertex 3 Zcoordinate
    47.01996569457697,        !- Vertex 4 Xcoordinate
    0,                        !- Vertex 4 Ycoordinate
    9;                        !- Vertex 4 Zcoordinate

BUILDINGSURFACE:DETAILED,
    Block Poly_87_Residential_3 Storey 2 Wall 0006,    !- Name
    Wall,                     !- Surface Type
    HSCWZ_Residential_2005_ExtWall,    !- Construction Name
    Block Poly_87_Residential_3 Storey 2,    !- Zone Name
    ,                         !- Space Name
    Outdoors,                 !- Outside Boundary Condition
    ,                         !- Outside Boundary Condition Object
    SunExposed,               !- Sun Exposure
    WindExposed,              !- Wind Exposure
    autocalculate,            !- View Factor to Ground
    autocalculate,            !- Number of Vertices
    47.01996569457697,        !- Vertex 1 Xcoordinate
    0,                        !- Vertex 1 Ycoordinate
    9,                        !- Vertex 1 Zcoordinate
    47.01996569457697,        !- Vertex 2 Xcoordinate
    0,                        !- Vertex 2 Ycoordinate
    6,                        !- Vertex 2 Zcoordinate
    47.17720378719969,        !- Vertex 3 Xcoordinate
    4.654353759717196,        !- Vertex 3 Ycoordinate
    6,                        !- Vertex 3 Zcoordinate
    47.17720378719969,        !- Vertex 4 Xcoordinate
    4.654353759717196,        !- Vertex 4 Ycoordinate
    9;                        !- Vertex 4 Zcoordinate

BUILDINGSURFACE:DETAILED,
    Block Poly_87_Residential_3 Storey 2 Wall 0007,    !- Name
    Wall,                     !- Surface Type
    HSCWZ_Residential_2005_ExtWall,    !- Construction Name
    Block Poly_87_Residential_3 Storey 2,    !- Zone Name
    ,                         !- Space Name
    Outdoors,                 !- Outside Boundary Condition
    ,                         !- Outside Boundary Condition Object
    SunExposed,               !- Sun Exposure
    WindExposed,              !- Wind Exposure
    autocalculate,            !- View Factor to Ground
    autocalculate,            !- Number of Vertices
    47.17720378719969,        !- Vertex 1 Xcoordinate
    4.654353759717196,        !- Vertex 1 Ycoordinate
    9,                        !- Vertex 1 Zcoordinate
    47.17720378719969,        !- Vertex 2 Xcoordinate
    4.654353759717196,        !- Vertex 2 Ycoordinate
    6,                        !- Vertex 2 Zcoordinate
    56.211964038957376,       !- Vertex 3 Xcoordinate
    4.422939342446625,        !- Vertex 3 Ycoordinate
    6,                        !- Vertex 3 Zcoordinate
    56.211964038957376,       !- Vertex 4 Xcoordinate
    4.422939342446625,        !- Vertex 4 Ycoordinate
    9;                        !- Vertex 4 Zcoordinate

BUILDINGSURFACE:DETAILED,
    Block Poly_87_Residential_3 Storey 2 Wall 0008,    !- Name
    Wall,                     !- Surface Type
    HSCWZ_Residential_2005_ExtWall,    !- Construction Name
    Block Poly_87_Residential_3 Storey 2,    !- Zone Name
    ,                         !- Space Name
    Outdoors,                 !- Outside Boundary Condition
    ,                         !- Outside Boundary Condition Object
    SunExposed,               !- Sun Exposure
    WindExposed,              !- Wind Exposure
    autocalculate,            !- View Factor to Ground
    autocalculate,            !- Number of Vertices
    56.211964038957376,       !- Vertex 1 Xcoordinate
    4.422939342446625,        !- Vertex 1 Ycoordinate
    9,                        !- Vertex 1 Zcoordinate
    56.211964038957376,       !- Vertex 2 Xcoordinate
    4.422939342446625,        !- Vertex 2 Ycoordinate
    6,                        !- Vertex 2 Zcoordinate
    56.239598526794,          !- Vertex 3 Xcoordinate
    13.62460599699989,        !- Vertex 3 Ycoordinate
    6,                        !- Vertex 3 Zcoordinate
    56.239598526794,          !- Vertex 4 Xcoordinate
    13.62460599699989,        !- Vertex 4 Ycoordinate
    9;                        !- Vertex 4 Zcoordinate

BUILDINGSURFACE:DETAILED,
    Block Poly_87_Residential_3 Storey 2 Wall 0009,    !- Name
    Wall,                     !- Surface Type
    HSCWZ_Residential_2005_ExtWall,    !- Construction Name
    Block Poly_87_Residential_3 Storey 2,    !- Zone Name
    ,                         !- Space Name
    Outdoors,                 !- Outside Boundary Condition
    ,                         !- Outside Boundary Condition Object
    SunExposed,               !- Sun Exposure
    WindExposed,              !- Wind Exposure
    autocalculate,            !- View Factor to Ground
    autocalculate,            !- Number of Vertices
    56.239598526794,          !- Vertex 1 Xcoordinate
    13.62460599699989,        !- Vertex 1 Ycoordinate
    9,                        !- Vertex 1 Zcoordinate
    56.239598526794,          !- Vertex 2 Xcoordinate
    13.62460599699989,        !- Vertex 2 Ycoordinate
    6,                        !- Vertex 2 Zcoordinate
    0.1228021571296267,       !- Vertex 3 Xcoordinate
    14.595210153609514,       !- Vertex 3 Ycoordinate
    6,                        !- Vertex 3 Zcoordinate
    0.1228021571296267,       !- Vertex 4 Xcoordinate
    14.595210153609514,       !- Vertex 4 Ycoordinate
    9;                        !- Vertex 4 Zcoordinate

BUILDINGSURFACE:DETAILED,
    Block Poly_87_Residential_3 Storey 2 Wall 0010,    !- Name
    Wall,                     !- Surface Type
    HSCWZ_Residential_2005_ExtWall,    !- Construction Name
    Block Poly_87_Residential_3 Storey 2,    !- Zone Name
    ,                         !- Space Name
    Outdoors,                 !- Outside Boundary Condition
    ,                         !- Outside Boundary Condition Object
    SunExposed,               !- Sun Exposure
    WindExposed,              !- Wind Exposure
    autocalculate,            !- View Factor to Ground
    autocalculate,            !- Number of Vertices
    0.1228021571296267,       !- Vertex 1 Xcoordinate
    14.595210153609514,       !- Vertex 1 Ycoordinate
    9,                        !- Vertex 1 Zcoordinate
    0.1228021571296267,       !- Vertex 2 Xcoordinate
    14.595210153609514,       !- Vertex 2 Ycoordinate
    6,                        !- Vertex 2 Zcoordinate
    0,                        !- Vertex 3 Xcoordinate
    5.394811453763396,        !- Vertex 3 Ycoordinate
    6,                        !- Vertex 3 Zcoordinate
    0,                        !- Vertex 4 Xcoordinate
    5.394811453763396,        !- Vertex 4 Ycoordinate
    9;                        !- Vertex 4 Zcoordinate

BUILDINGSURFACE:DETAILED,
    Block Poly_87_Residential_3 Storey 2 Wall 0011,    !- Name
    Wall,                     !- Surface Type
    HSCWZ_Residential_2005_ExtWall,    !- Construction Name
    Block Poly_87_Residential_3 Storey 2,    !- Zone Name
    ,                         !- Space Name
    Outdoors,                 !- Outside Boundary Condition
    ,                         !- Outside Boundary Condition Object
    SunExposed,               !- Sun Exposure
    WindExposed,              !- Wind Exposure
    autocalculate,            !- View Factor to Ground
    autocalculate,            !- Number of Vertices
    0,                        !- Vertex 1 Xcoordinate
    5.394811453763396,        !- Vertex 1 Ycoordinate
    9,                        !- Vertex 1 Zcoordinate
    0,                        !- Vertex 2 Xcoordinate
    5.394811453763396,        !- Vertex 2 Ycoordinate
    6,                        !- Vertex 2 Zcoordinate
    8.370411821699236,        !- Vertex 3 Xcoordinate
    5.283091011922807,        !- Vertex 3 Ycoordinate
    6,                        !- Vertex 3 Zcoordinate
    8.370411821699236,        !- Vertex 4 Xcoordinate
    5.283091011922807,        !- Vertex 4 Ycoordinate
    9;                        !- Vertex 4 Zcoordinate

BUILDINGSURFACE:DETAILED,
    Block Poly_87_Residential_3 Storey 2 Wall 0012,    !- Name
    Wall,                     !- Surface Type
    HSCWZ_Residential_2005_ExtWall,    !- Construction Name
    Block Poly_87_Residential_3 Storey 2,    !- Zone Name
    ,                         !- Space Name
    Outdoors,                 !- Outside Boundary Condition
    ,                         !- Outside Boundary Condition Object
    SunExposed,               !- Sun Exposure
    WindExposed,              !- Wind Exposure
    autocalculate,            !- View Factor to Ground
    autocalculate,            !- Number of Vertices
    8.370411821699236,        !- Vertex 1 Xcoordinate
    5.283091011922807,        !- Vertex 1 Ycoordinate
    9,                        !- Vertex 1 Zcoordinate
    8.370411821699236,        !- Vertex 2 Xcoordinate
    5.283091011922807,        !- Vertex 2 Ycoordinate
    6,                        !- Vertex 2 Zcoordinate
    8.308274807932321,        !- Vertex 3 Xcoordinate
    0.6274677002802491,       !- Vertex 3 Ycoordinate
    6,                        !- Vertex 3 Zcoordinate
    8.308274807932321,        !- Vertex 4 Xcoordinate
    0.6274677002802491,       !- Vertex 4 Ycoordinate
    9;                        !- Vertex 4 Zcoordinate

BUILDINGSURFACE:DETAILED,
    Block Poly_87_Residential_3 Storey 3 Wall 0001,    !- Name
    Wall,                     !- Surface Type
    HSCWZ_Residential_2005_ExtWall,    !- Construction Name
    Block Poly_87_Residential_3 Storey 3,    !- Zone Name
    ,                         !- Space Name
    Outdoors,                 !- Outside Boundary Condition
    ,                         !- Outside Boundary Condition Object
    SunExposed,               !- Sun Exposure
    WindExposed,              !- Wind Exposure
    autocalculate,            !- View Factor to Ground
    autocalculate,            !- Number of Vertices
    8.308274807932321,        !- Vertex 1 Xcoordinate
    0.6274677002802491,       !- Vertex 1 Ycoordinate
    12,                       !- Vertex 1 Zcoordinate
    8.308274807932321,        !- Vertex 2 Xcoordinate
    0.6274677002802491,       !- Vertex 2 Ycoordinate
    9,                        !- Vertex 2 Zcoordinate
    18.9615307400818,         !- Vertex 3 Xcoordinate
    0.4852878404781222,       !- Vertex 3 Ycoordinate
    9,                        !- Vertex 3 Zcoordinate
    18.9615307400818,         !- Vertex 4 Xcoordinate
    0.4852878404781222,       !- Vertex 4 Ycoordinate
    12;                       !- Vertex 4 Zcoordinate

BUILDINGSURFACE:DETAILED,
    Block Poly_87_Residential_3 Storey 3 Wall 0002,    !- Name
    Wall,                     !- Surface Type
    HSCWZ_Residential_2005_ExtWall,    !- Construction Name
    Block Poly_87_Residential_3 Storey 3,    !- Zone Name
    ,                         !- Space Name
    Outdoors,                 !- Outside Boundary Condition
    ,                         !- Outside Boundary Condition Object
    SunExposed,               !- Sun Exposure
    WindExposed,              !- Wind Exposure
    autocalculate,            !- View Factor to Ground
    autocalculate,            !- Number of Vertices
    18.9615307400818,         !- Vertex 1 Xcoordinate
    0.4852878404781222,       !- Vertex 1 Ycoordinate
    12,                       !- Vertex 1 Zcoordinate
    18.9615307400818,         !- Vertex 2 Xcoordinate
    0.4852878404781222,       !- Vertex 2 Ycoordinate
    9,                        !- Vertex 2 Zcoordinate
    19.1173019867274,         !- Vertex 3 Xcoordinate
    5.028793456964195,        !- Vertex 3 Ycoordinate
    9,                        !- Vertex 3 Zcoordinate
    19.1173019867274,         !- Vertex 4 Xcoordinate
    5.028793456964195,        !- Vertex 4 Ycoordinate
    12;                       !- Vertex 4 Zcoordinate

BUILDINGSURFACE:DETAILED,
    Block Poly_87_Residential_3 Storey 3 Wall 0003,    !- Name
    Wall,                     !- Surface Type
    HSCWZ_Residential_2005_ExtWall,    !- Construction Name
    Block Poly_87_Residential_3 Storey 3,    !- Zone Name
    ,                         !- Space Name
    Outdoors,                 !- Outside Boundary Condition
    ,                         !- Outside Boundary Condition Object
    SunExposed,               !- Sun Exposure
    WindExposed,              !- Wind Exposure
    autocalculate,            !- View Factor to Ground
    autocalculate,            !- Number of Vertices
    19.1173019867274,         !- Vertex 1 Xcoordinate
    5.028793456964195,        !- Vertex 1 Ycoordinate
    12,                       !- Vertex 1 Zcoordinate
    19.1173019867274,         !- Vertex 2 Xcoordinate
    5.028793456964195,        !- Vertex 2 Ycoordinate
    9,                        !- Vertex 2 Zcoordinate
    36.42883482348407,        !- Vertex 3 Xcoordinate
    4.79777431068942,         !- Vertex 3 Ycoordinate
    9,                        !- Vertex 3 Zcoordinate
    36.42883482348407,        !- Vertex 4 Xcoordinate
    4.79777431068942,         !- Vertex 4 Ycoordinate
    12;                       !- Vertex 4 Zcoordinate

BUILDINGSURFACE:DETAILED,
    Block Poly_87_Residential_3 Storey 3 Wall 0004,    !- Name
    Wall,                     !- Surface Type
    HSCWZ_Residential_2005_ExtWall,    !- Construction Name
    Block Poly_87_Residential_3 Storey 3,    !- Zone Name
    ,                         !- Space Name
    Outdoors,                 !- Outside Boundary Condition
    ,                         !- Outside Boundary Condition Object
    SunExposed,               !- Sun Exposure
    WindExposed,              !- Wind Exposure
    autocalculate,            !- View Factor to Ground
    autocalculate,            !- Number of Vertices
    36.42883482348407,        !- Vertex 1 Xcoordinate
    4.79777431068942,         !- Vertex 1 Ycoordinate
    12,                       !- Vertex 1 Zcoordinate
    36.42883482348407,        !- Vertex 2 Xcoordinate
    4.79777431068942,         !- Vertex 2 Ycoordinate
    9,                        !- Vertex 2 Zcoordinate
    36.36671029863646,        !- Vertex 3 Xcoordinate
    0.1421512835659086,       !- Vertex 3 Ycoordinate
    9,                        !- Vertex 3 Zcoordinate
    36.36671029863646,        !- Vertex 4 Xcoordinate
    0.1421512835659086,       !- Vertex 4 Ycoordinate
    12;                       !- Vertex 4 Zcoordinate

BUILDINGSURFACE:DETAILED,
    Block Poly_87_Residential_3 Storey 3 Wall 0005,    !- Name
    Wall,                     !- Surface Type
    HSCWZ_Residential_2005_ExtWall,    !- Construction Name
    Block Poly_87_Residential_3 Storey 3,    !- Zone Name
    ,                         !- Space Name
    Outdoors,                 !- Outside Boundary Condition
    ,                         !- Outside Boundary Condition Object
    SunExposed,               !- Sun Exposure
    WindExposed,              !- Wind Exposure
    autocalculate,            !- View Factor to Ground
    autocalculate,            !- Number of Vertices
    36.36671029863646,        !- Vertex 1 Xcoordinate
    0.1421512835659086,       !- Vertex 1 Ycoordinate
    12,                       !- Vertex 1 Zcoordinate
    36.36671029863646,        !- Vertex 2 Xcoordinate
    0.1421512835659086,       !- Vertex 2 Ycoordinate
    9,                        !- Vertex 2 Zcoordinate
    47.01996569457697,        !- Vertex 3 Xcoordinate
    0,                        !- Vertex 3 Ycoordinate
    9,                        !- Vertex 3 Zcoordinate
    47.01996569457697,        !- Vertex 4 Xcoordinate
    0,                        !- Vertex 4 Ycoordinate
    12;                       !- Vertex 4 Zcoordinate

BUILDINGSURFACE:DETAILED,
    Block Poly_87_Residential_3 Storey 3 Wall 0006,    !- Name
    Wall,                     !- Surface Type
    HSCWZ_Residential_2005_ExtWall,    !- Construction Name
    Block Poly_87_Residential_3 Storey 3,    !- Zone Name
    ,                         !- Space Name
    Outdoors,                 !- Outside Boundary Condition
    ,                         !- Outside Boundary Condition Object
    SunExposed,               !- Sun Exposure
    WindExposed,              !- Wind Exposure
    autocalculate,            !- View Factor to Ground
    autocalculate,            !- Number of Vertices
    47.01996569457697,        !- Vertex 1 Xcoordinate
    0,                        !- Vertex 1 Ycoordinate
    12,                       !- Vertex 1 Zcoordinate
    47.01996569457697,        !- Vertex 2 Xcoordinate
    0,                        !- Vertex 2 Ycoordinate
    9,                        !- Vertex 2 Zcoordinate
    47.17720378719969,        !- Vertex 3 Xcoordinate
    4.654353759717196,        !- Vertex 3 Ycoordinate
    9,                        !- Vertex 3 Zcoordinate
    47.17720378719969,        !- Vertex 4 Xcoordinate
    4.654353759717196,        !- Vertex 4 Ycoordinate
    12;                       !- Vertex 4 Zcoordinate

BUILDINGSURFACE:DETAILED,
    Block Poly_87_Residential_3 Storey 3 Wall 0007,    !- Name
    Wall,                     !- Surface Type
    HSCWZ_Residential_2005_ExtWall,    !- Construction Name
    Block Poly_87_Residential_3 Storey 3,    !- Zone Name
    ,                         !- Space Name
    Outdoors,                 !- Outside Boundary Condition
    ,                         !- Outside Boundary Condition Object
    SunExposed,               !- Sun Exposure
    WindExposed,              !- Wind Exposure
    autocalculate,            !- View Factor to Ground
    autocalculate,            !- Number of Vertices
    47.17720378719969,        !- Vertex 1 Xcoordinate
    4.654353759717196,        !- Vertex 1 Ycoordinate
    12,                       !- Vertex 1 Zcoordinate
    47.17720378719969,        !- Vertex 2 Xcoordinate
    4.654353759717196,        !- Vertex 2 Ycoordinate
    9,                        !- Vertex 2 Zcoordinate
    56.211964038957376,       !- Vertex 3 Xcoordinate
    4.422939342446625,        !- Vertex 3 Ycoordinate
    9,                        !- Vertex 3 Zcoordinate
    56.211964038957376,       !- Vertex 4 Xcoordinate
    4.422939342446625,        !- Vertex 4 Ycoordinate
    12;                       !- Vertex 4 Zcoordinate

BUILDINGSURFACE:DETAILED,
    Block Poly_87_Residential_3 Storey 3 Wall 0008,    !- Name
    Wall,                     !- Surface Type
    HSCWZ_Residential_2005_ExtWall,    !- Construction Name
    Block Poly_87_Residential_3 Storey 3,    !- Zone Name
    ,                         !- Space Name
    Outdoors,                 !- Outside Boundary Condition
    ,                         !- Outside Boundary Condition Object
    SunExposed,               !- Sun Exposure
    WindExposed,              !- Wind Exposure
    autocalculate,            !- View Factor to Ground
    autocalculate,            !- Number of Vertices
    56.211964038957376,       !- Vertex 1 Xcoordinate
    4.422939342446625,        !- Vertex 1 Ycoordinate
    12,                       !- Vertex 1 Zcoordinate
    56.211964038957376,       !- Vertex 2 Xcoordinate
    4.422939342446625,        !- Vertex 2 Ycoordinate
    9,                        !- Vertex 2 Zcoordinate
    56.239598526794,          !- Vertex 3 Xcoordinate
    13.62460599699989,        !- Vertex 3 Ycoordinate
    9,                        !- Vertex 3 Zcoordinate
    56.239598526794,          !- Vertex 4 Xcoordinate
    13.62460599699989,        !- Vertex 4 Ycoordinate
    12;                       !- Vertex 4 Zcoordinate

BUILDINGSURFACE:DETAILED,
    Block Poly_87_Residential_3 Storey 3 Wall 0009,    !- Name
    Wall,                     !- Surface Type
    HSCWZ_Residential_2005_ExtWall,    !- Construction Name
    Block Poly_87_Residential_3 Storey 3,    !- Zone Name
    ,                         !- Space Name
    Outdoors,                 !- Outside Boundary Condition
    ,                         !- Outside Boundary Condition Object
    SunExposed,               !- Sun Exposure
    WindExposed,              !- Wind Exposure
    autocalculate,            !- View Factor to Ground
    autocalculate,            !- Number of Vertices
    56.239598526794,          !- Vertex 1 Xcoordinate
    13.62460599699989,        !- Vertex 1 Ycoordinate
    12,                       !- Vertex 1 Zcoordinate
    56.239598526794,          !- Vertex 2 Xcoordinate
    13.62460599699989,        !- Vertex 2 Ycoordinate
    9,                        !- Vertex 2 Zcoordinate
    0.1228021571296267,       !- Vertex 3 Xcoordinate
    14.595210153609514,       !- Vertex 3 Ycoordinate
    9,                        !- Vertex 3 Zcoordinate
    0.1228021571296267,       !- Vertex 4 Xcoordinate
    14.595210153609514,       !- Vertex 4 Ycoordinate
    12;                       !- Vertex 4 Zcoordinate

BUILDINGSURFACE:DETAILED,
    Block Poly_87_Residential_3 Storey 3 Wall 0010,    !- Name
    Wall,                     !- Surface Type
    HSCWZ_Residential_2005_ExtWall,    !- Construction Name
    Block Poly_87_Residential_3 Storey 3,    !- Zone Name
    ,                         !- Space Name
    Outdoors,                 !- Outside Boundary Condition
    ,                         !- Outside Boundary Condition Object
    SunExposed,               !- Sun Exposure
    WindExposed,              !- Wind Exposure
    autocalculate,            !- View Factor to Ground
    autocalculate,            !- Number of Vertices
    0.1228021571296267,       !- Vertex 1 Xcoordinate
    14.595210153609514,       !- Vertex 1 Ycoordinate
    12,                       !- Vertex 1 Zcoordinate
    0.1228021571296267,       !- Vertex 2 Xcoordinate
    14.595210153609514,       !- Vertex 2 Ycoordinate
    9,                        !- Vertex 2 Zcoordinate
    0,                        !- Vertex 3 Xcoordinate
    5.394811453763396,        !- Vertex 3 Ycoordinate
    9,                        !- Vertex 3 Zcoordinate
    0,                        !- Vertex 4 Xcoordinate
    5.394811453763396,        !- Vertex 4 Ycoordinate
    12;                       !- Vertex 4 Zcoordinate

BUILDINGSURFACE:DETAILED,
    Block Poly_87_Residential_3 Storey 3 Wall 0011,    !- Name
    Wall,                     !- Surface Type
    HSCWZ_Residential_2005_ExtWall,    !- Construction Name
    Block Poly_87_Residential_3 Storey 3,    !- Zone Name
    ,                         !- Space Name
    Outdoors,                 !- Outside Boundary Condition
    ,                         !- Outside Boundary Condition Object
    SunExposed,               !- Sun Exposure
    WindExposed,              !- Wind Exposure
    autocalculate,            !- View Factor to Ground
    autocalculate,            !- Number of Vertices
    0,                        !- Vertex 1 Xcoordinate
    5.394811453763396,        !- Vertex 1 Ycoordinate
    12,                       !- Vertex 1 Zcoordinate
    0,                        !- Vertex 2 Xcoordinate
    5.394811453763396,        !- Vertex 2 Ycoordinate
    9,                        !- Vertex 2 Zcoordinate
    8.370411821699236,        !- Vertex 3 Xcoordinate
    5.283091011922807,        !- Vertex 3 Ycoordinate
    9,                        !- Vertex 3 Zcoordinate
    8.370411821699236,        !- Vertex 4 Xcoordinate
    5.283091011922807,        !- Vertex 4 Ycoordinate
    12;                       !- Vertex 4 Zcoordinate

BUILDINGSURFACE:DETAILED,
    Block Poly_87_Residential_3 Storey 3 Wall 0012,    !- Name
    Wall,                     !- Surface Type
    HSCWZ_Residential_2005_ExtWall,    !- Construction Name
    Block Poly_87_Residential_3 Storey 3,    !- Zone Name
    ,                         !- Space Name
    Outdoors,                 !- Outside Boundary Condition
    ,                         !- Outside Boundary Condition Object
    SunExposed,               !- Sun Exposure
    WindExposed,              !- Wind Exposure
    autocalculate,            !- View Factor to Ground
    autocalculate,            !- Number of Vertices
    8.370411821699236,        !- Vertex 1 Xcoordinate
    5.283091011922807,        !- Vertex 1 Ycoordinate
    12,                       !- Vertex 1 Zcoordinate
    8.370411821699236,        !- Vertex 2 Xcoordinate
    5.283091011922807,        !- Vertex 2 Ycoordinate
    9,                        !- Vertex 2 Zcoordinate
    8.308274807932321,        !- Vertex 3 Xcoordinate
    0.6274677002802491,       !- Vertex 3 Ycoordinate
    9,                        !- Vertex 3 Zcoordinate
    8.308274807932321,        !- Vertex 4 Xcoordinate
    0.6274677002802491,       !- Vertex 4 Ycoordinate
    12;                       !- Vertex 4 Zcoordinate

BUILDINGSURFACE:DETAILED,
    Block Poly_87_Residential_3 Storey 4 Wall 0001,    !- Name
    Wall,                     !- Surface Type
    HSCWZ_Residential_2005_ExtWall,    !- Construction Name
    Block Poly_87_Residential_3 Storey 4,    !- Zone Name
    ,                         !- Space Name
    Outdoors,                 !- Outside Boundary Condition
    ,                         !- Outside Boundary Condition Object
    SunExposed,               !- Sun Exposure
    WindExposed,              !- Wind Exposure
    autocalculate,            !- View Factor to Ground
    autocalculate,            !- Number of Vertices
    8.308274807932321,        !- Vertex 1 Xcoordinate
    0.6274677002802491,       !- Vertex 1 Ycoordinate
    15,                       !- Vertex 1 Zcoordinate
    8.308274807932321,        !- Vertex 2 Xcoordinate
    0.6274677002802491,       !- Vertex 2 Ycoordinate
    12,                       !- Vertex 2 Zcoordinate
    18.9615307400818,         !- Vertex 3 Xcoordinate
    0.4852878404781222,       !- Vertex 3 Ycoordinate
    12,                       !- Vertex 3 Zcoordinate
    18.9615307400818,         !- Vertex 4 Xcoordinate
    0.4852878404781222,       !- Vertex 4 Ycoordinate
    15;                       !- Vertex 4 Zcoordinate

BUILDINGSURFACE:DETAILED,
    Block Poly_87_Residential_3 Storey 4 Wall 0002,    !- Name
    Wall,                     !- Surface Type
    HSCWZ_Residential_2005_ExtWall,    !- Construction Name
    Block Poly_87_Residential_3 Storey 4,    !- Zone Name
    ,                         !- Space Name
    Outdoors,                 !- Outside Boundary Condition
    ,                         !- Outside Boundary Condition Object
    SunExposed,               !- Sun Exposure
    WindExposed,              !- Wind Exposure
    autocalculate,            !- View Factor to Ground
    autocalculate,            !- Number of Vertices
    18.9615307400818,         !- Vertex 1 Xcoordinate
    0.4852878404781222,       !- Vertex 1 Ycoordinate
    15,                       !- Vertex 1 Zcoordinate
    18.9615307400818,         !- Vertex 2 Xcoordinate
    0.4852878404781222,       !- Vertex 2 Ycoordinate
    12,                       !- Vertex 2 Zcoordinate
    19.1173019867274,         !- Vertex 3 Xcoordinate
    5.028793456964195,        !- Vertex 3 Ycoordinate
    12,                       !- Vertex 3 Zcoordinate
    19.1173019867274,         !- Vertex 4 Xcoordinate
    5.028793456964195,        !- Vertex 4 Ycoordinate
    15;                       !- Vertex 4 Zcoordinate

BUILDINGSURFACE:DETAILED,
    Block Poly_87_Residential_3 Storey 4 Wall 0003,    !- Name
    Wall,                     !- Surface Type
    HSCWZ_Residential_2005_ExtWall,    !- Construction Name
    Block Poly_87_Residential_3 Storey 4,    !- Zone Name
    ,                         !- Space Name
    Outdoors,                 !- Outside Boundary Condition
    ,                         !- Outside Boundary Condition Object
    SunExposed,               !- Sun Exposure
    WindExposed,              !- Wind Exposure
    autocalculate,            !- View Factor to Ground
    autocalculate,            !- Number of Vertices
    19.1173019867274,         !- Vertex 1 Xcoordinate
    5.028793456964195,        !- Vertex 1 Ycoordinate
    15,                       !- Vertex 1 Zcoordinate
    19.1173019867274,         !- Vertex 2 Xcoordinate
    5.028793456964195,        !- Vertex 2 Ycoordinate
    12,                       !- Vertex 2 Zcoordinate
    36.42883482348407,        !- Vertex 3 Xcoordinate
    4.79777431068942,         !- Vertex 3 Ycoordinate
    12,                       !- Vertex 3 Zcoordinate
    36.42883482348407,        !- Vertex 4 Xcoordinate
    4.79777431068942,         !- Vertex 4 Ycoordinate
    15;                       !- Vertex 4 Zcoordinate

BUILDINGSURFACE:DETAILED,
    Block Poly_87_Residential_3 Storey 4 Wall 0004,    !- Name
    Wall,                     !- Surface Type
    HSCWZ_Residential_2005_ExtWall,    !- Construction Name
    Block Poly_87_Residential_3 Storey 4,    !- Zone Name
    ,                         !- Space Name
    Outdoors,                 !- Outside Boundary Condition
    ,                         !- Outside Boundary Condition Object
    SunExposed,               !- Sun Exposure
    WindExposed,              !- Wind Exposure
    autocalculate,            !- View Factor to Ground
    autocalculate,            !- Number of Vertices
    36.42883482348407,        !- Vertex 1 Xcoordinate
    4.79777431068942,         !- Vertex 1 Ycoordinate
    15,                       !- Vertex 1 Zcoordinate
    36.42883482348407,        !- Vertex 2 Xcoordinate
    4.79777431068942,         !- Vertex 2 Ycoordinate
    12,                       !- Vertex 2 Zcoordinate
    36.36671029863646,        !- Vertex 3 Xcoordinate
    0.1421512835659086,       !- Vertex 3 Ycoordinate
    12,                       !- Vertex 3 Zcoordinate
    36.36671029863646,        !- Vertex 4 Xcoordinate
    0.1421512835659086,       !- Vertex 4 Ycoordinate
    15;                       !- Vertex 4 Zcoordinate

BUILDINGSURFACE:DETAILED,
    Block Poly_87_Residential_3 Storey 4 Wall 0005,    !- Name
    Wall,                     !- Surface Type
    HSCWZ_Residential_2005_ExtWall,    !- Construction Name
    Block Poly_87_Residential_3 Storey 4,    !- Zone Name
    ,                         !- Space Name
    Outdoors,                 !- Outside Boundary Condition
    ,                         !- Outside Boundary Condition Object
    SunExposed,               !- Sun Exposure
    WindExposed,              !- Wind Exposure
    autocalculate,            !- View Factor to Ground
    autocalculate,            !- Number of Vertices
    36.36671029863646,        !- Vertex 1 Xcoordinate
    0.1421512835659086,       !- Vertex 1 Ycoordinate
    15,                       !- Vertex 1 Zcoordinate
    36.36671029863646,        !- Vertex 2 Xcoordinate
    0.1421512835659086,       !- Vertex 2 Ycoordinate
    12,                       !- Vertex 2 Zcoordinate
    47.01996569457697,        !- Vertex 3 Xcoordinate
    0,                        !- Vertex 3 Ycoordinate
    12,                       !- Vertex 3 Zcoordinate
    47.01996569457697,        !- Vertex 4 Xcoordinate
    0,                        !- Vertex 4 Ycoordinate
    15;                       !- Vertex 4 Zcoordinate

BUILDINGSURFACE:DETAILED,
    Block Poly_87_Residential_3 Storey 4 Wall 0006,    !- Name
    Wall,                     !- Surface Type
    HSCWZ_Residential_2005_ExtWall,    !- Construction Name
    Block Poly_87_Residential_3 Storey 4,    !- Zone Name
    ,                         !- Space Name
    Outdoors,                 !- Outside Boundary Condition
    ,                         !- Outside Boundary Condition Object
    SunExposed,               !- Sun Exposure
    WindExposed,              !- Wind Exposure
    autocalculate,            !- View Factor to Ground
    autocalculate,            !- Number of Vertices
    47.01996569457697,        !- Vertex 1 Xcoordinate
    0,                        !- Vertex 1 Ycoordinate
    15,                       !- Vertex 1 Zcoordinate
    47.01996569457697,        !- Vertex 2 Xcoordinate
    0,                        !- Vertex 2 Ycoordinate
    12,                       !- Vertex 2 Zcoordinate
    47.17720378719969,        !- Vertex 3 Xcoordinate
    4.654353759717196,        !- Vertex 3 Ycoordinate
    12,                       !- Vertex 3 Zcoordinate
    47.17720378719969,        !- Vertex 4 Xcoordinate
    4.654353759717196,        !- Vertex 4 Ycoordinate
    15;                       !- Vertex 4 Zcoordinate

BUILDINGSURFACE:DETAILED,
    Block Poly_87_Residential_3 Storey 4 Wall 0007,    !- Name
    Wall,                     !- Surface Type
    HSCWZ_Residential_2005_ExtWall,    !- Construction Name
    Block Poly_87_Residential_3 Storey 4,    !- Zone Name
    ,                         !- Space Name
    Outdoors,                 !- Outside Boundary Condition
    ,                         !- Outside Boundary Condition Object
    SunExposed,               !- Sun Exposure
    WindExposed,              !- Wind Exposure
    autocalculate,            !- View Factor to Ground
    autocalculate,            !- Number of Vertices
    47.17720378719969,        !- Vertex 1 Xcoordinate
    4.654353759717196,        !- Vertex 1 Ycoordinate
    15,                       !- Vertex 1 Zcoordinate
    47.17720378719969,        !- Vertex 2 Xcoordinate
    4.654353759717196,        !- Vertex 2 Ycoordinate
    12,                       !- Vertex 2 Zcoordinate
    56.211964038957376,       !- Vertex 3 Xcoordinate
    4.422939342446625,        !- Vertex 3 Ycoordinate
    12,                       !- Vertex 3 Zcoordinate
    56.211964038957376,       !- Vertex 4 Xcoordinate
    4.422939342446625,        !- Vertex 4 Ycoordinate
    15;                       !- Vertex 4 Zcoordinate

BUILDINGSURFACE:DETAILED,
    Block Poly_87_Residential_3 Storey 4 Wall 0008,    !- Name
    Wall,                     !- Surface Type
    HSCWZ_Residential_2005_ExtWall,    !- Construction Name
    Block Poly_87_Residential_3 Storey 4,    !- Zone Name
    ,                         !- Space Name
    Outdoors,                 !- Outside Boundary Condition
    ,                         !- Outside Boundary Condition Object
    SunExposed,               !- Sun Exposure
    WindExposed,              !- Wind Exposure
    autocalculate,            !- View Factor to Ground
    autocalculate,            !- Number of Vertices
    56.211964038957376,       !- Vertex 1 Xcoordinate
    4.422939342446625,        !- Vertex 1 Ycoordinate
    15,                       !- Vertex 1 Zcoordinate
    56.211964038957376,       !- Vertex 2 Xcoordinate
    4.422939342446625,        !- Vertex 2 Ycoordinate
    12,                       !- Vertex 2 Zcoordinate
    56.239598526794,          !- Vertex 3 Xcoordinate
    13.62460599699989,        !- Vertex 3 Ycoordinate
    12,                       !- Vertex 3 Zcoordinate
    56.239598526794,          !- Vertex 4 Xcoordinate
    13.62460599699989,        !- Vertex 4 Ycoordinate
    15;                       !- Vertex 4 Zcoordinate

BUILDINGSURFACE:DETAILED,
    Block Poly_87_Residential_3 Storey 4 Wall 0009,    !- Name
    Wall,                     !- Surface Type
    HSCWZ_Residential_2005_ExtWall,    !- Construction Name
    Block Poly_87_Residential_3 Storey 4,    !- Zone Name
    ,                         !- Space Name
    Outdoors,                 !- Outside Boundary Condition
    ,                         !- Outside Boundary Condition Object
    SunExposed,               !- Sun Exposure
    WindExposed,              !- Wind Exposure
    autocalculate,            !- View Factor to Ground
    autocalculate,            !- Number of Vertices
    56.239598526794,          !- Vertex 1 Xcoordinate
    13.62460599699989,        !- Vertex 1 Ycoordinate
    15,                       !- Vertex 1 Zcoordinate
    56.239598526794,          !- Vertex 2 Xcoordinate
    13.62460599699989,        !- Vertex 2 Ycoordinate
    12,                       !- Vertex 2 Zcoordinate
    0.1228021571296267,       !- Vertex 3 Xcoordinate
    14.595210153609514,       !- Vertex 3 Ycoordinate
    12,                       !- Vertex 3 Zcoordinate
    0.1228021571296267,       !- Vertex 4 Xcoordinate
    14.595210153609514,       !- Vertex 4 Ycoordinate
    15;                       !- Vertex 4 Zcoordinate

BUILDINGSURFACE:DETAILED,
    Block Poly_87_Residential_3 Storey 4 Wall 0010,    !- Name
    Wall,                     !- Surface Type
    HSCWZ_Residential_2005_ExtWall,    !- Construction Name
    Block Poly_87_Residential_3 Storey 4,    !- Zone Name
    ,                         !- Space Name
    Outdoors,                 !- Outside Boundary Condition
    ,                         !- Outside Boundary Condition Object
    SunExposed,               !- Sun Exposure
    WindExposed,              !- Wind Exposure
    autocalculate,            !- View Factor to Ground
    autocalculate,            !- Number of Vertices
    0.1228021571296267,       !- Vertex 1 Xcoordinate
    14.595210153609514,       !- Vertex 1 Ycoordinate
    15,                       !- Vertex 1 Zcoordinate
    0.1228021571296267,       !- Vertex 2 Xcoordinate
    14.595210153609514,       !- Vertex 2 Ycoordinate
    12,                       !- Vertex 2 Zcoordinate
    0,                        !- Vertex 3 Xcoordinate
    5.394811453763396,        !- Vertex 3 Ycoordinate
    12,                       !- Vertex 3 Zcoordinate
    0,                        !- Vertex 4 Xcoordinate
    5.394811453763396,        !- Vertex 4 Ycoordinate
    15;                       !- Vertex 4 Zcoordinate

BUILDINGSURFACE:DETAILED,
    Block Poly_87_Residential_3 Storey 4 Wall 0011,    !- Name
    Wall,                     !- Surface Type
    HSCWZ_Residential_2005_ExtWall,    !- Construction Name
    Block Poly_87_Residential_3 Storey 4,    !- Zone Name
    ,                         !- Space Name
    Outdoors,                 !- Outside Boundary Condition
    ,                         !- Outside Boundary Condition Object
    SunExposed,               !- Sun Exposure
    WindExposed,              !- Wind Exposure
    autocalculate,            !- View Factor to Ground
    autocalculate,            !- Number of Vertices
    0,                        !- Vertex 1 Xcoordinate
    5.394811453763396,        !- Vertex 1 Ycoordinate
    15,                       !- Vertex 1 Zcoordinate
    0,                        !- Vertex 2 Xcoordinate
    5.394811453763396,        !- Vertex 2 Ycoordinate
    12,                       !- Vertex 2 Zcoordinate
    8.370411821699236,        !- Vertex 3 Xcoordinate
    5.283091011922807,        !- Vertex 3 Ycoordinate
    12,                       !- Vertex 3 Zcoordinate
    8.370411821699236,        !- Vertex 4 Xcoordinate
    5.283091011922807,        !- Vertex 4 Ycoordinate
    15;                       !- Vertex 4 Zcoordinate

BUILDINGSURFACE:DETAILED,
    Block Poly_87_Residential_3 Storey 4 Wall 0012,    !- Name
    Wall,                     !- Surface Type
    HSCWZ_Residential_2005_ExtWall,    !- Construction Name
    Block Poly_87_Residential_3 Storey 4,    !- Zone Name
    ,                         !- Space Name
    Outdoors,                 !- Outside Boundary Condition
    ,                         !- Outside Boundary Condition Object
    SunExposed,               !- Sun Exposure
    WindExposed,              !- Wind Exposure
    autocalculate,            !- View Factor to Ground
    autocalculate,            !- Number of Vertices
    8.370411821699236,        !- Vertex 1 Xcoordinate
    5.283091011922807,        !- Vertex 1 Ycoordinate
    15,                       !- Vertex 1 Zcoordinate
    8.370411821699236,        !- Vertex 2 Xcoordinate
    5.283091011922807,        !- Vertex 2 Ycoordinate
    12,                       !- Vertex 2 Zcoordinate
    8.308274807932321,        !- Vertex 3 Xcoordinate
    0.6274677002802491,       !- Vertex 3 Ycoordinate
    12,                       !- Vertex 3 Zcoordinate
    8.308274807932321,        !- Vertex 4 Xcoordinate
    0.6274677002802491,       !- Vertex 4 Ycoordinate
    15;                       !- Vertex 4 Zcoordinate

BUILDINGSURFACE:DETAILED,
    Block Poly_87_Residential_3 Storey 5 Wall 0001,    !- Name
    Wall,                     !- Surface Type
    HSCWZ_Residential_2005_ExtWall,    !- Construction Name
    Block Poly_87_Residential_3 Storey 5,    !- Zone Name
    ,                         !- Space Name
    Outdoors,                 !- Outside Boundary Condition
    ,                         !- Outside Boundary Condition Object
    SunExposed,               !- Sun Exposure
    WindExposed,              !- Wind Exposure
    autocalculate,            !- View Factor to Ground
    autocalculate,            !- Number of Vertices
    8.308274807932321,        !- Vertex 1 Xcoordinate
    0.6274677002802491,       !- Vertex 1 Ycoordinate
    18,                       !- Vertex 1 Zcoordinate
    8.308274807932321,        !- Vertex 2 Xcoordinate
    0.6274677002802491,       !- Vertex 2 Ycoordinate
    15,                       !- Vertex 2 Zcoordinate
    18.9615307400818,         !- Vertex 3 Xcoordinate
    0.4852878404781222,       !- Vertex 3 Ycoordinate
    15,                       !- Vertex 3 Zcoordinate
    18.9615307400818,         !- Vertex 4 Xcoordinate
    0.4852878404781222,       !- Vertex 4 Ycoordinate
    18;                       !- Vertex 4 Zcoordinate

BUILDINGSURFACE:DETAILED,
    Block Poly_87_Residential_3 Storey 5 Wall 0002,    !- Name
    Wall,                     !- Surface Type
    HSCWZ_Residential_2005_ExtWall,    !- Construction Name
    Block Poly_87_Residential_3 Storey 5,    !- Zone Name
    ,                         !- Space Name
    Outdoors,                 !- Outside Boundary Condition
    ,                         !- Outside Boundary Condition Object
    SunExposed,               !- Sun Exposure
    WindExposed,              !- Wind Exposure
    autocalculate,            !- View Factor to Ground
    autocalculate,            !- Number of Vertices
    18.9615307400818,         !- Vertex 1 Xcoordinate
    0.4852878404781222,       !- Vertex 1 Ycoordinate
    18,                       !- Vertex 1 Zcoordinate
    18.9615307400818,         !- Vertex 2 Xcoordinate
    0.4852878404781222,       !- Vertex 2 Ycoordinate
    15,                       !- Vertex 2 Zcoordinate
    19.1173019867274,         !- Vertex 3 Xcoordinate
    5.028793456964195,        !- Vertex 3 Ycoordinate
    15,                       !- Vertex 3 Zcoordinate
    19.1173019867274,         !- Vertex 4 Xcoordinate
    5.028793456964195,        !- Vertex 4 Ycoordinate
    18;                       !- Vertex 4 Zcoordinate

BUILDINGSURFACE:DETAILED,
    Block Poly_87_Residential_3 Storey 5 Wall 0003,    !- Name
    Wall,                     !- Surface Type
    HSCWZ_Residential_2005_ExtWall,    !- Construction Name
    Block Poly_87_Residential_3 Storey 5,    !- Zone Name
    ,                         !- Space Name
    Outdoors,                 !- Outside Boundary Condition
    ,                         !- Outside Boundary Condition Object
    SunExposed,               !- Sun Exposure
    WindExposed,              !- Wind Exposure
    autocalculate,            !- View Factor to Ground
    autocalculate,            !- Number of Vertices
    19.1173019867274,         !- Vertex 1 Xcoordinate
    5.028793456964195,        !- Vertex 1 Ycoordinate
    18,                       !- Vertex 1 Zcoordinate
    19.1173019867274,         !- Vertex 2 Xcoordinate
    5.028793456964195,        !- Vertex 2 Ycoordinate
    15,                       !- Vertex 2 Zcoordinate
    36.42883482348407,        !- Vertex 3 Xcoordinate
    4.79777431068942,         !- Vertex 3 Ycoordinate
    15,                       !- Vertex 3 Zcoordinate
    36.42883482348407,        !- Vertex 4 Xcoordinate
    4.79777431068942,         !- Vertex 4 Ycoordinate
    18;                       !- Vertex 4 Zcoordinate

BUILDINGSURFACE:DETAILED,
    Block Poly_87_Residential_3 Storey 5 Wall 0004,    !- Name
    Wall,                     !- Surface Type
    HSCWZ_Residential_2005_ExtWall,    !- Construction Name
    Block Poly_87_Residential_3 Storey 5,    !- Zone Name
    ,                         !- Space Name
    Outdoors,                 !- Outside Boundary Condition
    ,                         !- Outside Boundary Condition Object
    SunExposed,               !- Sun Exposure
    WindExposed,              !- Wind Exposure
    autocalculate,            !- View Factor to Ground
    autocalculate,            !- Number of Vertices
    36.42883482348407,        !- Vertex 1 Xcoordinate
    4.79777431068942,         !- Vertex 1 Ycoordinate
    18,                       !- Vertex 1 Zcoordinate
    36.42883482348407,        !- Vertex 2 Xcoordinate
    4.79777431068942,         !- Vertex 2 Ycoordinate
    15,                       !- Vertex 2 Zcoordinate
    36.36671029863646,        !- Vertex 3 Xcoordinate
    0.1421512835659086,       !- Vertex 3 Ycoordinate
    15,                       !- Vertex 3 Zcoordinate
    36.36671029863646,        !- Vertex 4 Xcoordinate
    0.1421512835659086,       !- Vertex 4 Ycoordinate
    18;                       !- Vertex 4 Zcoordinate

BUILDINGSURFACE:DETAILED,
    Block Poly_87_Residential_3 Storey 5 Wall 0005,    !- Name
    Wall,                     !- Surface Type
    HSCWZ_Residential_2005_ExtWall,    !- Construction Name
    Block Poly_87_Residential_3 Storey 5,    !- Zone Name
    ,                         !- Space Name
    Outdoors,                 !- Outside Boundary Condition
    ,                         !- Outside Boundary Condition Object
    SunExposed,               !- Sun Exposure
    WindExposed,              !- Wind Exposure
    autocalculate,            !- View Factor to Ground
    autocalculate,            !- Number of Vertices
    36.36671029863646,        !- Vertex 1 Xcoordinate
    0.1421512835659086,       !- Vertex 1 Ycoordinate
    18,                       !- Vertex 1 Zcoordinate
    36.36671029863646,        !- Vertex 2 Xcoordinate
    0.1421512835659086,       !- Vertex 2 Ycoordinate
    15,                       !- Vertex 2 Zcoordinate
    47.01996569457697,        !- Vertex 3 Xcoordinate
    0,                        !- Vertex 3 Ycoordinate
    15,                       !- Vertex 3 Zcoordinate
    47.01996569457697,        !- Vertex 4 Xcoordinate
    0,                        !- Vertex 4 Ycoordinate
    18;                       !- Vertex 4 Zcoordinate

BUILDINGSURFACE:DETAILED,
    Block Poly_87_Residential_3 Storey 5 Wall 0006,    !- Name
    Wall,                     !- Surface Type
    HSCWZ_Residential_2005_ExtWall,    !- Construction Name
    Block Poly_87_Residential_3 Storey 5,    !- Zone Name
    ,                         !- Space Name
    Outdoors,                 !- Outside Boundary Condition
    ,                         !- Outside Boundary Condition Object
    SunExposed,               !- Sun Exposure
    WindExposed,              !- Wind Exposure
    autocalculate,            !- View Factor to Ground
    autocalculate,            !- Number of Vertices
    47.01996569457697,        !- Vertex 1 Xcoordinate
    0,                        !- Vertex 1 Ycoordinate
    18,                       !- Vertex 1 Zcoordinate
    47.01996569457697,        !- Vertex 2 Xcoordinate
    0,                        !- Vertex 2 Ycoordinate
    15,                       !- Vertex 2 Zcoordinate
    47.17720378719969,        !- Vertex 3 Xcoordinate
    4.654353759717196,        !- Vertex 3 Ycoordinate
    15,                       !- Vertex 3 Zcoordinate
    47.17720378719969,        !- Vertex 4 Xcoordinate
    4.654353759717196,        !- Vertex 4 Ycoordinate
    18;                       !- Vertex 4 Zcoordinate

BUILDINGSURFACE:DETAILED,
    Block Poly_87_Residential_3 Storey 5 Wall 0007,    !- Name
    Wall,                     !- Surface Type
    HSCWZ_Residential_2005_ExtWall,    !- Construction Name
    Block Poly_87_Residential_3 Storey 5,    !- Zone Name
    ,                         !- Space Name
    Outdoors,                 !- Outside Boundary Condition
    ,                         !- Outside Boundary Condition Object
    SunExposed,               !- Sun Exposure
    WindExposed,              !- Wind Exposure
    autocalculate,            !- View Factor to Ground
    autocalculate,            !- Number of Vertices
    47.17720378719969,        !- Vertex 1 Xcoordinate
    4.654353759717196,        !- Vertex 1 Ycoordinate
    18,                       !- Vertex 1 Zcoordinate
    47.17720378719969,        !- Vertex 2 Xcoordinate
    4.654353759717196,        !- Vertex 2 Ycoordinate
    15,                       !- Vertex 2 Zcoordinate
    56.211964038957376,       !- Vertex 3 Xcoordinate
    4.422939342446625,        !- Vertex 3 Ycoordinate
    15,                       !- Vertex 3 Zcoordinate
    56.211964038957376,       !- Vertex 4 Xcoordinate
    4.422939342446625,        !- Vertex 4 Ycoordinate
    18;                       !- Vertex 4 Zcoordinate

BUILDINGSURFACE:DETAILED,
    Block Poly_87_Residential_3 Storey 5 Wall 0008,    !- Name
    Wall,                     !- Surface Type
    HSCWZ_Residential_2005_ExtWall,    !- Construction Name
    Block Poly_87_Residential_3 Storey 5,    !- Zone Name
    ,                         !- Space Name
    Outdoors,                 !- Outside Boundary Condition
    ,                         !- Outside Boundary Condition Object
    SunExposed,               !- Sun Exposure
    WindExposed,              !- Wind Exposure
    autocalculate,            !- View Factor to Ground
    autocalculate,            !- Number of Vertices
    56.211964038957376,       !- Vertex 1 Xcoordinate
    4.422939342446625,        !- Vertex 1 Ycoordinate
    18,                       !- Vertex 1 Zcoordinate
    56.211964038957376,       !- Vertex 2 Xcoordinate
    4.422939342446625,        !- Vertex 2 Ycoordinate
    15,                       !- Vertex 2 Zcoordinate
    56.239598526794,          !- Vertex 3 Xcoordinate
    13.62460599699989,        !- Vertex 3 Ycoordinate
    15,                       !- Vertex 3 Zcoordinate
    56.239598526794,          !- Vertex 4 Xcoordinate
    13.62460599699989,        !- Vertex 4 Ycoordinate
    18;                       !- Vertex 4 Zcoordinate

BUILDINGSURFACE:DETAILED,
    Block Poly_87_Residential_3 Storey 5 Wall 0009,    !- Name
    Wall,                     !- Surface Type
    HSCWZ_Residential_2005_ExtWall,    !- Construction Name
    Block Poly_87_Residential_3 Storey 5,    !- Zone Name
    ,                         !- Space Name
    Outdoors,                 !- Outside Boundary Condition
    ,                         !- Outside Boundary Condition Object
    SunExposed,               !- Sun Exposure
    WindExposed,              !- Wind Exposure
    autocalculate,            !- View Factor to Ground
    autocalculate,            !- Number of Vertices
    56.239598526794,          !- Vertex 1 Xcoordinate
    13.62460599699989,        !- Vertex 1 Ycoordinate
    18,                       !- Vertex 1 Zcoordinate
    56.239598526794,          !- Vertex 2 Xcoordinate
    13.62460599699989,        !- Vertex 2 Ycoordinate
    15,                       !- Vertex 2 Zcoordinate
    0.1228021571296267,       !- Vertex 3 Xcoordinate
    14.595210153609514,       !- Vertex 3 Ycoordinate
    15,                       !- Vertex 3 Zcoordinate
    0.1228021571296267,       !- Vertex 4 Xcoordinate
    14.595210153609514,       !- Vertex 4 Ycoordinate
    18;                       !- Vertex 4 Zcoordinate

BUILDINGSURFACE:DETAILED,
    Block Poly_87_Residential_3 Storey 5 Wall 0010,    !- Name
    Wall,                     !- Surface Type
    HSCWZ_Residential_2005_ExtWall,    !- Construction Name
    Block Poly_87_Residential_3 Storey 5,    !- Zone Name
    ,                         !- Space Name
    Outdoors,                 !- Outside Boundary Condition
    ,                         !- Outside Boundary Condition Object
    SunExposed,               !- Sun Exposure
    WindExposed,              !- Wind Exposure
    autocalculate,            !- View Factor to Ground
    autocalculate,            !- Number of Vertices
    0.1228021571296267,       !- Vertex 1 Xcoordinate
    14.595210153609514,       !- Vertex 1 Ycoordinate
    18,                       !- Vertex 1 Zcoordinate
    0.1228021571296267,       !- Vertex 2 Xcoordinate
    14.595210153609514,       !- Vertex 2 Ycoordinate
    15,                       !- Vertex 2 Zcoordinate
    0,                        !- Vertex 3 Xcoordinate
    5.394811453763396,        !- Vertex 3 Ycoordinate
    15,                       !- Vertex 3 Zcoordinate
    0,                        !- Vertex 4 Xcoordinate
    5.394811453763396,        !- Vertex 4 Ycoordinate
    18;                       !- Vertex 4 Zcoordinate

BUILDINGSURFACE:DETAILED,
    Block Poly_87_Residential_3 Storey 5 Wall 0011,    !- Name
    Wall,                     !- Surface Type
    HSCWZ_Residential_2005_ExtWall,    !- Construction Name
    Block Poly_87_Residential_3 Storey 5,    !- Zone Name
    ,                         !- Space Name
    Outdoors,                 !- Outside Boundary Condition
    ,                         !- Outside Boundary Condition Object
    SunExposed,               !- Sun Exposure
    WindExposed,              !- Wind Exposure
    autocalculate,            !- View Factor to Ground
    autocalculate,            !- Number of Vertices
    0,                        !- Vertex 1 Xcoordinate
    5.394811453763396,        !- Vertex 1 Ycoordinate
    18,                       !- Vertex 1 Zcoordinate
    0,                        !- Vertex 2 Xcoordinate
    5.394811453763396,        !- Vertex 2 Ycoordinate
    15,                       !- Vertex 2 Zcoordinate
    8.370411821699236,        !- Vertex 3 Xcoordinate
    5.283091011922807,        !- Vertex 3 Ycoordinate
    15,                       !- Vertex 3 Zcoordinate
    8.370411821699236,        !- Vertex 4 Xcoordinate
    5.283091011922807,        !- Vertex 4 Ycoordinate
    18;                       !- Vertex 4 Zcoordinate

BUILDINGSURFACE:DETAILED,
    Block Poly_87_Residential_3 Storey 5 Wall 0012,    !- Name
    Wall,                     !- Surface Type
    HSCWZ_Residential_2005_ExtWall,    !- Construction Name
    Block Poly_87_Residential_3 Storey 5,    !- Zone Name
    ,                         !- Space Name
    Outdoors,                 !- Outside Boundary Condition
    ,                         !- Outside Boundary Condition Object
    SunExposed,               !- Sun Exposure
    WindExposed,              !- Wind Exposure
    autocalculate,            !- View Factor to Ground
    autocalculate,            !- Number of Vertices
    8.370411821699236,        !- Vertex 1 Xcoordinate
    5.283091011922807,        !- Vertex 1 Ycoordinate
    18,                       !- Vertex 1 Zcoordinate
    8.370411821699236,        !- Vertex 2 Xcoordinate
    5.283091011922807,        !- Vertex 2 Ycoordinate
    15,                       !- Vertex 2 Zcoordinate
    8.308274807932321,        !- Vertex 3 Xcoordinate
    0.6274677002802491,       !- Vertex 3 Ycoordinate
    15,                       !- Vertex 3 Zcoordinate
    8.308274807932321,        !- Vertex 4 Xcoordinate
    0.6274677002802491,       !- Vertex 4 Ycoordinate
    18;                       !- Vertex 4 Zcoordinate

BUILDINGSURFACE:DETAILED,
    Block Poly_87_Residential_3 Storey 6 Wall 0001,    !- Name
    Wall,                     !- Surface Type
    HSCWZ_Residential_2005_ExtWall,    !- Construction Name
    Block Poly_87_Residential_3 Storey 6,    !- Zone Name
    ,                         !- Space Name
    Outdoors,                 !- Outside Boundary Condition
    ,                         !- Outside Boundary Condition Object
    SunExposed,               !- Sun Exposure
    WindExposed,              !- Wind Exposure
    autocalculate,            !- View Factor to Ground
    autocalculate,            !- Number of Vertices
    8.308274807932321,        !- Vertex 1 Xcoordinate
    0.6274677002802491,       !- Vertex 1 Ycoordinate
    21,                       !- Vertex 1 Zcoordinate
    8.308274807932321,        !- Vertex 2 Xcoordinate
    0.6274677002802491,       !- Vertex 2 Ycoordinate
    18,                       !- Vertex 2 Zcoordinate
    18.9615307400818,         !- Vertex 3 Xcoordinate
    0.4852878404781222,       !- Vertex 3 Ycoordinate
    18,                       !- Vertex 3 Zcoordinate
    18.9615307400818,         !- Vertex 4 Xcoordinate
    0.4852878404781222,       !- Vertex 4 Ycoordinate
    21;                       !- Vertex 4 Zcoordinate

BUILDINGSURFACE:DETAILED,
    Block Poly_87_Residential_3 Storey 6 Wall 0002,    !- Name
    Wall,                     !- Surface Type
    HSCWZ_Residential_2005_ExtWall,    !- Construction Name
    Block Poly_87_Residential_3 Storey 6,    !- Zone Name
    ,                         !- Space Name
    Outdoors,                 !- Outside Boundary Condition
    ,                         !- Outside Boundary Condition Object
    SunExposed,               !- Sun Exposure
    WindExposed,              !- Wind Exposure
    autocalculate,            !- View Factor to Ground
    autocalculate,            !- Number of Vertices
    18.9615307400818,         !- Vertex 1 Xcoordinate
    0.4852878404781222,       !- Vertex 1 Ycoordinate
    21,                       !- Vertex 1 Zcoordinate
    18.9615307400818,         !- Vertex 2 Xcoordinate
    0.4852878404781222,       !- Vertex 2 Ycoordinate
    18,                       !- Vertex 2 Zcoordinate
    19.1173019867274,         !- Vertex 3 Xcoordinate
    5.028793456964195,        !- Vertex 3 Ycoordinate
    18,                       !- Vertex 3 Zcoordinate
    19.1173019867274,         !- Vertex 4 Xcoordinate
    5.028793456964195,        !- Vertex 4 Ycoordinate
    21;                       !- Vertex 4 Zcoordinate

BUILDINGSURFACE:DETAILED,
    Block Poly_87_Residential_3 Storey 6 Wall 0003,    !- Name
    Wall,                     !- Surface Type
    HSCWZ_Residential_2005_ExtWall,    !- Construction Name
    Block Poly_87_Residential_3 Storey 6,    !- Zone Name
    ,                         !- Space Name
    Outdoors,                 !- Outside Boundary Condition
    ,                         !- Outside Boundary Condition Object
    SunExposed,               !- Sun Exposure
    WindExposed,              !- Wind Exposure
    autocalculate,            !- View Factor to Ground
    autocalculate,            !- Number of Vertices
    19.1173019867274,         !- Vertex 1 Xcoordinate
    5.028793456964195,        !- Vertex 1 Ycoordinate
    21,                       !- Vertex 1 Zcoordinate
    19.1173019867274,         !- Vertex 2 Xcoordinate
    5.028793456964195,        !- Vertex 2 Ycoordinate
    18,                       !- Vertex 2 Zcoordinate
    36.42883482348407,        !- Vertex 3 Xcoordinate
    4.79777431068942,         !- Vertex 3 Ycoordinate
    18,                       !- Vertex 3 Zcoordinate
    36.42883482348407,        !- Vertex 4 Xcoordinate
    4.79777431068942,         !- Vertex 4 Ycoordinate
    21;                       !- Vertex 4 Zcoordinate

BUILDINGSURFACE:DETAILED,
    Block Poly_87_Residential_3 Storey 6 Wall 0004,    !- Name
    Wall,                     !- Surface Type
    HSCWZ_Residential_2005_ExtWall,    !- Construction Name
    Block Poly_87_Residential_3 Storey 6,    !- Zone Name
    ,                         !- Space Name
    Outdoors,                 !- Outside Boundary Condition
    ,                         !- Outside Boundary Condition Object
    SunExposed,               !- Sun Exposure
    WindExposed,              !- Wind Exposure
    autocalculate,            !- View Factor to Ground
    autocalculate,            !- Number of Vertices
    36.42883482348407,        !- Vertex 1 Xcoordinate
    4.79777431068942,         !- Vertex 1 Ycoordinate
    21,                       !- Vertex 1 Zcoordinate
    36.42883482348407,        !- Vertex 2 Xcoordinate
    4.79777431068942,         !- Vertex 2 Ycoordinate
    18,                       !- Vertex 2 Zcoordinate
    36.36671029863646,        !- Vertex 3 Xcoordinate
    0.1421512835659086,       !- Vertex 3 Ycoordinate
    18,                       !- Vertex 3 Zcoordinate
    36.36671029863646,        !- Vertex 4 Xcoordinate
    0.1421512835659086,       !- Vertex 4 Ycoordinate
    21;                       !- Vertex 4 Zcoordinate

BUILDINGSURFACE:DETAILED,
    Block Poly_87_Residential_3 Storey 6 Wall 0005,    !- Name
    Wall,                     !- Surface Type
    HSCWZ_Residential_2005_ExtWall,    !- Construction Name
    Block Poly_87_Residential_3 Storey 6,    !- Zone Name
    ,                         !- Space Name
    Outdoors,                 !- Outside Boundary Condition
    ,                         !- Outside Boundary Condition Object
    SunExposed,               !- Sun Exposure
    WindExposed,              !- Wind Exposure
    autocalculate,            !- View Factor to Ground
    autocalculate,            !- Number of Vertices
    36.36671029863646,        !- Vertex 1 Xcoordinate
    0.1421512835659086,       !- Vertex 1 Ycoordinate
    21,                       !- Vertex 1 Zcoordinate
    36.36671029863646,        !- Vertex 2 Xcoordinate
    0.1421512835659086,       !- Vertex 2 Ycoordinate
    18,                       !- Vertex 2 Zcoordinate
    47.01996569457697,        !- Vertex 3 Xcoordinate
    0,                        !- Vertex 3 Ycoordinate
    18,                       !- Vertex 3 Zcoordinate
    47.01996569457697,        !- Vertex 4 Xcoordinate
    0,                        !- Vertex 4 Ycoordinate
    21;                       !- Vertex 4 Zcoordinate

BUILDINGSURFACE:DETAILED,
    Block Poly_87_Residential_3 Storey 6 Wall 0006,    !- Name
    Wall,                     !- Surface Type
    HSCWZ_Residential_2005_ExtWall,    !- Construction Name
    Block Poly_87_Residential_3 Storey 6,    !- Zone Name
    ,                         !- Space Name
    Outdoors,                 !- Outside Boundary Condition
    ,                         !- Outside Boundary Condition Object
    SunExposed,               !- Sun Exposure
    WindExposed,              !- Wind Exposure
    autocalculate,            !- View Factor to Ground
    autocalculate,            !- Number of Vertices
    47.01996569457697,        !- Vertex 1 Xcoordinate
    0,                        !- Vertex 1 Ycoordinate
    21,                       !- Vertex 1 Zcoordinate
    47.01996569457697,        !- Vertex 2 Xcoordinate
    0,                        !- Vertex 2 Ycoordinate
    18,                       !- Vertex 2 Zcoordinate
    47.17720378719969,        !- Vertex 3 Xcoordinate
    4.654353759717196,        !- Vertex 3 Ycoordinate
    18,                       !- Vertex 3 Zcoordinate
    47.17720378719969,        !- Vertex 4 Xcoordinate
    4.654353759717196,        !- Vertex 4 Ycoordinate
    21;                       !- Vertex 4 Zcoordinate

BUILDINGSURFACE:DETAILED,
    Block Poly_87_Residential_3 Storey 6 Wall 0007,    !- Name
    Wall,                     !- Surface Type
    HSCWZ_Residential_2005_ExtWall,    !- Construction Name
    Block Poly_87_Residential_3 Storey 6,    !- Zone Name
    ,                         !- Space Name
    Outdoors,                 !- Outside Boundary Condition
    ,                         !- Outside Boundary Condition Object
    SunExposed,               !- Sun Exposure
    WindExposed,              !- Wind Exposure
    autocalculate,            !- View Factor to Ground
    autocalculate,            !- Number of Vertices
    47.17720378719969,        !- Vertex 1 Xcoordinate
    4.654353759717196,        !- Vertex 1 Ycoordinate
    21,                       !- Vertex 1 Zcoordinate
    47.17720378719969,        !- Vertex 2 Xcoordinate
    4.654353759717196,        !- Vertex 2 Ycoordinate
    18,                       !- Vertex 2 Zcoordinate
    56.211964038957376,       !- Vertex 3 Xcoordinate
    4.422939342446625,        !- Vertex 3 Ycoordinate
    18,                       !- Vertex 3 Zcoordinate
    56.211964038957376,       !- Vertex 4 Xcoordinate
    4.422939342446625,        !- Vertex 4 Ycoordinate
    21;                       !- Vertex 4 Zcoordinate

BUILDINGSURFACE:DETAILED,
    Block Poly_87_Residential_3 Storey 6 Wall 0008,    !- Name
    Wall,                     !- Surface Type
    HSCWZ_Residential_2005_ExtWall,    !- Construction Name
    Block Poly_87_Residential_3 Storey 6,    !- Zone Name
    ,                         !- Space Name
    Outdoors,                 !- Outside Boundary Condition
    ,                         !- Outside Boundary Condition Object
    SunExposed,               !- Sun Exposure
    WindExposed,              !- Wind Exposure
    autocalculate,            !- View Factor to Ground
    autocalculate,            !- Number of Vertices
    56.211964038957376,       !- Vertex 1 Xcoordinate
    4.422939342446625,        !- Vertex 1 Ycoordinate
    21,                       !- Vertex 1 Zcoordinate
    56.211964038957376,       !- Vertex 2 Xcoordinate
    4.422939342446625,        !- Vertex 2 Ycoordinate
    18,                       !- Vertex 2 Zcoordinate
    56.239598526794,          !- Vertex 3 Xcoordinate
    13.62460599699989,        !- Vertex 3 Ycoordinate
    18,                       !- Vertex 3 Zcoordinate
    56.239598526794,          !- Vertex 4 Xcoordinate
    13.62460599699989,        !- Vertex 4 Ycoordinate
    21;                       !- Vertex 4 Zcoordinate

BUILDINGSURFACE:DETAILED,
    Block Poly_87_Residential_3 Storey 6 Wall 0009,    !- Name
    Wall,                     !- Surface Type
    HSCWZ_Residential_2005_ExtWall,    !- Construction Name
    Block Poly_87_Residential_3 Storey 6,    !- Zone Name
    ,                         !- Space Name
    Outdoors,                 !- Outside Boundary Condition
    ,                         !- Outside Boundary Condition Object
    SunExposed,               !- Sun Exposure
    WindExposed,              !- Wind Exposure
    autocalculate,            !- View Factor to Ground
    autocalculate,            !- Number of Vertices
    56.239598526794,          !- Vertex 1 Xcoordinate
    13.62460599699989,        !- Vertex 1 Ycoordinate
    21,                       !- Vertex 1 Zcoordinate
    56.239598526794,          !- Vertex 2 Xcoordinate
    13.62460599699989,        !- Vertex 2 Ycoordinate
    18,                       !- Vertex 2 Zcoordinate
    0.1228021571296267,       !- Vertex 3 Xcoordinate
    14.595210153609514,       !- Vertex 3 Ycoordinate
    18,                       !- Vertex 3 Zcoordinate
    0.1228021571296267,       !- Vertex 4 Xcoordinate
    14.595210153609514,       !- Vertex 4 Ycoordinate
    21;                       !- Vertex 4 Zcoordinate

BUILDINGSURFACE:DETAILED,
    Block Poly_87_Residential_3 Storey 6 Wall 0010,    !- Name
    Wall,                     !- Surface Type
    HSCWZ_Residential_2005_ExtWall,    !- Construction Name
    Block Poly_87_Residential_3 Storey 6,    !- Zone Name
    ,                         !- Space Name
    Outdoors,                 !- Outside Boundary Condition
    ,                         !- Outside Boundary Condition Object
    SunExposed,               !- Sun Exposure
    WindExposed,              !- Wind Exposure
    autocalculate,            !- View Factor to Ground
    autocalculate,            !- Number of Vertices
    0.1228021571296267,       !- Vertex 1 Xcoordinate
    14.595210153609514,       !- Vertex 1 Ycoordinate
    21,                       !- Vertex 1 Zcoordinate
    0.1228021571296267,       !- Vertex 2 Xcoordinate
    14.595210153609514,       !- Vertex 2 Ycoordinate
    18,                       !- Vertex 2 Zcoordinate
    0,                        !- Vertex 3 Xcoordinate
    5.394811453763396,        !- Vertex 3 Ycoordinate
    18,                       !- Vertex 3 Zcoordinate
    0,                        !- Vertex 4 Xcoordinate
    5.394811453763396,        !- Vertex 4 Ycoordinate
    21;                       !- Vertex 4 Zcoordinate

BUILDINGSURFACE:DETAILED,
    Block Poly_87_Residential_3 Storey 6 Wall 0011,    !- Name
    Wall,                     !- Surface Type
    HSCWZ_Residential_2005_ExtWall,    !- Construction Name
    Block Poly_87_Residential_3 Storey 6,    !- Zone Name
    ,                         !- Space Name
    Outdoors,                 !- Outside Boundary Condition
    ,                         !- Outside Boundary Condition Object
    SunExposed,               !- Sun Exposure
    WindExposed,              !- Wind Exposure
    autocalculate,            !- View Factor to Ground
    autocalculate,            !- Number of Vertices
    0,                        !- Vertex 1 Xcoordinate
    5.394811453763396,        !- Vertex 1 Ycoordinate
    21,                       !- Vertex 1 Zcoordinate
    0,                        !- Vertex 2 Xcoordinate
    5.394811453763396,        !- Vertex 2 Ycoordinate
    18,                       !- Vertex 2 Zcoordinate
    8.370411821699236,        !- Vertex 3 Xcoordinate
    5.283091011922807,        !- Vertex 3 Ycoordinate
    18,                       !- Vertex 3 Zcoordinate
    8.370411821699236,        !- Vertex 4 Xcoordinate
    5.283091011922807,        !- Vertex 4 Ycoordinate
    21;                       !- Vertex 4 Zcoordinate

BUILDINGSURFACE:DETAILED,
    Block Poly_87_Residential_3 Storey 6 Wall 0012,    !- Name
    Wall,                     !- Surface Type
    HSCWZ_Residential_2005_ExtWall,    !- Construction Name
    Block Poly_87_Residential_3 Storey 6,    !- Zone Name
    ,                         !- Space Name
    Outdoors,                 !- Outside Boundary Condition
    ,                         !- Outside Boundary Condition Object
    SunExposed,               !- Sun Exposure
    WindExposed,              !- Wind Exposure
    autocalculate,            !- View Factor to Ground
    autocalculate,            !- Number of Vertices
    8.370411821699236,        !- Vertex 1 Xcoordinate
    5.283091011922807,        !- Vertex 1 Ycoordinate
    21,                       !- Vertex 1 Zcoordinate
    8.370411821699236,        !- Vertex 2 Xcoordinate
    5.283091011922807,        !- Vertex 2 Ycoordinate
    18,                       !- Vertex 2 Zcoordinate
    8.308274807932321,        !- Vertex 3 Xcoordinate
    0.6274677002802491,       !- Vertex 3 Ycoordinate
    18,                       !- Vertex 3 Zcoordinate
    8.308274807932321,        !- Vertex 4 Xcoordinate
    0.6274677002802491,       !- Vertex 4 Ycoordinate
    21;                       !- Vertex 4 Zcoordinate

BUILDINGSURFACE:DETAILED,
    Block Poly_87_Residential_3 Storey 7 Wall 0001,    !- Name
    Wall,                     !- Surface Type
    HSCWZ_Residential_2005_ExtWall,    !- Construction Name
    Block Poly_87_Residential_3 Storey 7,    !- Zone Name
    ,                         !- Space Name
    Outdoors,                 !- Outside Boundary Condition
    ,                         !- Outside Boundary Condition Object
    SunExposed,               !- Sun Exposure
    WindExposed,              !- Wind Exposure
    autocalculate,            !- View Factor to Ground
    autocalculate,            !- Number of Vertices
    8.308274807932321,        !- Vertex 1 Xcoordinate
    0.6274677002802491,       !- Vertex 1 Ycoordinate
    24,                       !- Vertex 1 Zcoordinate
    8.308274807932321,        !- Vertex 2 Xcoordinate
    0.6274677002802491,       !- Vertex 2 Ycoordinate
    21,                       !- Vertex 2 Zcoordinate
    18.9615307400818,         !- Vertex 3 Xcoordinate
    0.4852878404781222,       !- Vertex 3 Ycoordinate
    21,                       !- Vertex 3 Zcoordinate
    18.9615307400818,         !- Vertex 4 Xcoordinate
    0.4852878404781222,       !- Vertex 4 Ycoordinate
    24;                       !- Vertex 4 Zcoordinate

BUILDINGSURFACE:DETAILED,
    Block Poly_87_Residential_3 Storey 7 Wall 0002,    !- Name
    Wall,                     !- Surface Type
    HSCWZ_Residential_2005_ExtWall,    !- Construction Name
    Block Poly_87_Residential_3 Storey 7,    !- Zone Name
    ,                         !- Space Name
    Outdoors,                 !- Outside Boundary Condition
    ,                         !- Outside Boundary Condition Object
    SunExposed,               !- Sun Exposure
    WindExposed,              !- Wind Exposure
    autocalculate,            !- View Factor to Ground
    autocalculate,            !- Number of Vertices
    18.9615307400818,         !- Vertex 1 Xcoordinate
    0.4852878404781222,       !- Vertex 1 Ycoordinate
    24,                       !- Vertex 1 Zcoordinate
    18.9615307400818,         !- Vertex 2 Xcoordinate
    0.4852878404781222,       !- Vertex 2 Ycoordinate
    21,                       !- Vertex 2 Zcoordinate
    19.1173019867274,         !- Vertex 3 Xcoordinate
    5.028793456964195,        !- Vertex 3 Ycoordinate
    21,                       !- Vertex 3 Zcoordinate
    19.1173019867274,         !- Vertex 4 Xcoordinate
    5.028793456964195,        !- Vertex 4 Ycoordinate
    24;                       !- Vertex 4 Zcoordinate

BUILDINGSURFACE:DETAILED,
    Block Poly_87_Residential_3 Storey 7 Wall 0003,    !- Name
    Wall,                     !- Surface Type
    HSCWZ_Residential_2005_ExtWall,    !- Construction Name
    Block Poly_87_Residential_3 Storey 7,    !- Zone Name
    ,                         !- Space Name
    Outdoors,                 !- Outside Boundary Condition
    ,                         !- Outside Boundary Condition Object
    SunExposed,               !- Sun Exposure
    WindExposed,              !- Wind Exposure
    autocalculate,            !- View Factor to Ground
    autocalculate,            !- Number of Vertices
    19.1173019867274,         !- Vertex 1 Xcoordinate
    5.028793456964195,        !- Vertex 1 Ycoordinate
    24,                       !- Vertex 1 Zcoordinate
    19.1173019867274,         !- Vertex 2 Xcoordinate
    5.028793456964195,        !- Vertex 2 Ycoordinate
    21,                       !- Vertex 2 Zcoordinate
    36.42883482348407,        !- Vertex 3 Xcoordinate
    4.79777431068942,         !- Vertex 3 Ycoordinate
    21,                       !- Vertex 3 Zcoordinate
    36.42883482348407,        !- Vertex 4 Xcoordinate
    4.79777431068942,         !- Vertex 4 Ycoordinate
    24;                       !- Vertex 4 Zcoordinate

BUILDINGSURFACE:DETAILED,
    Block Poly_87_Residential_3 Storey 7 Wall 0004,    !- Name
    Wall,                     !- Surface Type
    HSCWZ_Residential_2005_ExtWall,    !- Construction Name
    Block Poly_87_Residential_3 Storey 7,    !- Zone Name
    ,                         !- Space Name
    Outdoors,                 !- Outside Boundary Condition
    ,                         !- Outside Boundary Condition Object
    SunExposed,               !- Sun Exposure
    WindExposed,              !- Wind Exposure
    autocalculate,            !- View Factor to Ground
    autocalculate,            !- Number of Vertices
    36.42883482348407,        !- Vertex 1 Xcoordinate
    4.79777431068942,         !- Vertex 1 Ycoordinate
    24,                       !- Vertex 1 Zcoordinate
    36.42883482348407,        !- Vertex 2 Xcoordinate
    4.79777431068942,         !- Vertex 2 Ycoordinate
    21,                       !- Vertex 2 Zcoordinate
    36.36671029863646,        !- Vertex 3 Xcoordinate
    0.1421512835659086,       !- Vertex 3 Ycoordinate
    21,                       !- Vertex 3 Zcoordinate
    36.36671029863646,        !- Vertex 4 Xcoordinate
    0.1421512835659086,       !- Vertex 4 Ycoordinate
    24;                       !- Vertex 4 Zcoordinate

BUILDINGSURFACE:DETAILED,
    Block Poly_87_Residential_3 Storey 7 Wall 0005,    !- Name
    Wall,                     !- Surface Type
    HSCWZ_Residential_2005_ExtWall,    !- Construction Name
    Block Poly_87_Residential_3 Storey 7,    !- Zone Name
    ,                         !- Space Name
    Outdoors,                 !- Outside Boundary Condition
    ,                         !- Outside Boundary Condition Object
    SunExposed,               !- Sun Exposure
    WindExposed,              !- Wind Exposure
    autocalculate,            !- View Factor to Ground
    autocalculate,            !- Number of Vertices
    36.36671029863646,        !- Vertex 1 Xcoordinate
    0.1421512835659086,       !- Vertex 1 Ycoordinate
    24,                       !- Vertex 1 Zcoordinate
    36.36671029863646,        !- Vertex 2 Xcoordinate
    0.1421512835659086,       !- Vertex 2 Ycoordinate
    21,                       !- Vertex 2 Zcoordinate
    47.01996569457697,        !- Vertex 3 Xcoordinate
    0,                        !- Vertex 3 Ycoordinate
    21,                       !- Vertex 3 Zcoordinate
    47.01996569457697,        !- Vertex 4 Xcoordinate
    0,                        !- Vertex 4 Ycoordinate
    24;                       !- Vertex 4 Zcoordinate

BUILDINGSURFACE:DETAILED,
    Block Poly_87_Residential_3 Storey 7 Wall 0006,    !- Name
    Wall,                     !- Surface Type
    HSCWZ_Residential_2005_ExtWall,    !- Construction Name
    Block Poly_87_Residential_3 Storey 7,    !- Zone Name
    ,                         !- Space Name
    Outdoors,                 !- Outside Boundary Condition
    ,                         !- Outside Boundary Condition Object
    SunExposed,               !- Sun Exposure
    WindExposed,              !- Wind Exposure
    autocalculate,            !- View Factor to Ground
    autocalculate,            !- Number of Vertices
    47.01996569457697,        !- Vertex 1 Xcoordinate
    0,                        !- Vertex 1 Ycoordinate
    24,                       !- Vertex 1 Zcoordinate
    47.01996569457697,        !- Vertex 2 Xcoordinate
    0,                        !- Vertex 2 Ycoordinate
    21,                       !- Vertex 2 Zcoordinate
    47.17720378719969,        !- Vertex 3 Xcoordinate
    4.654353759717196,        !- Vertex 3 Ycoordinate
    21,                       !- Vertex 3 Zcoordinate
    47.17720378719969,        !- Vertex 4 Xcoordinate
    4.654353759717196,        !- Vertex 4 Ycoordinate
    24;                       !- Vertex 4 Zcoordinate

BUILDINGSURFACE:DETAILED,
    Block Poly_87_Residential_3 Storey 7 Wall 0007,    !- Name
    Wall,                     !- Surface Type
    HSCWZ_Residential_2005_ExtWall,    !- Construction Name
    Block Poly_87_Residential_3 Storey 7,    !- Zone Name
    ,                         !- Space Name
    Outdoors,                 !- Outside Boundary Condition
    ,                         !- Outside Boundary Condition Object
    SunExposed,               !- Sun Exposure
    WindExposed,              !- Wind Exposure
    autocalculate,            !- View Factor to Ground
    autocalculate,            !- Number of Vertices
    47.17720378719969,        !- Vertex 1 Xcoordinate
    4.654353759717196,        !- Vertex 1 Ycoordinate
    24,                       !- Vertex 1 Zcoordinate
    47.17720378719969,        !- Vertex 2 Xcoordinate
    4.654353759717196,        !- Vertex 2 Ycoordinate
    21,                       !- Vertex 2 Zcoordinate
    56.211964038957376,       !- Vertex 3 Xcoordinate
    4.422939342446625,        !- Vertex 3 Ycoordinate
    21,                       !- Vertex 3 Zcoordinate
    56.211964038957376,       !- Vertex 4 Xcoordinate
    4.422939342446625,        !- Vertex 4 Ycoordinate
    24;                       !- Vertex 4 Zcoordinate

BUILDINGSURFACE:DETAILED,
    Block Poly_87_Residential_3 Storey 7 Wall 0008,    !- Name
    Wall,                     !- Surface Type
    HSCWZ_Residential_2005_ExtWall,    !- Construction Name
    Block Poly_87_Residential_3 Storey 7,    !- Zone Name
    ,                         !- Space Name
    Outdoors,                 !- Outside Boundary Condition
    ,                         !- Outside Boundary Condition Object
    SunExposed,               !- Sun Exposure
    WindExposed,              !- Wind Exposure
    autocalculate,            !- View Factor to Ground
    autocalculate,            !- Number of Vertices
    56.211964038957376,       !- Vertex 1 Xcoordinate
    4.422939342446625,        !- Vertex 1 Ycoordinate
    24,                       !- Vertex 1 Zcoordinate
    56.211964038957376,       !- Vertex 2 Xcoordinate
    4.422939342446625,        !- Vertex 2 Ycoordinate
    21,                       !- Vertex 2 Zcoordinate
    56.239598526794,          !- Vertex 3 Xcoordinate
    13.62460599699989,        !- Vertex 3 Ycoordinate
    21,                       !- Vertex 3 Zcoordinate
    56.239598526794,          !- Vertex 4 Xcoordinate
    13.62460599699989,        !- Vertex 4 Ycoordinate
    24;                       !- Vertex 4 Zcoordinate

BUILDINGSURFACE:DETAILED,
    Block Poly_87_Residential_3 Storey 7 Wall 0009,    !- Name
    Wall,                     !- Surface Type
    HSCWZ_Residential_2005_ExtWall,    !- Construction Name
    Block Poly_87_Residential_3 Storey 7,    !- Zone Name
    ,                         !- Space Name
    Outdoors,                 !- Outside Boundary Condition
    ,                         !- Outside Boundary Condition Object
    SunExposed,               !- Sun Exposure
    WindExposed,              !- Wind Exposure
    autocalculate,            !- View Factor to Ground
    autocalculate,            !- Number of Vertices
    56.239598526794,          !- Vertex 1 Xcoordinate
    13.62460599699989,        !- Vertex 1 Ycoordinate
    24,                       !- Vertex 1 Zcoordinate
    56.239598526794,          !- Vertex 2 Xcoordinate
    13.62460599699989,        !- Vertex 2 Ycoordinate
    21,                       !- Vertex 2 Zcoordinate
    0.1228021571296267,       !- Vertex 3 Xcoordinate
    14.595210153609514,       !- Vertex 3 Ycoordinate
    21,                       !- Vertex 3 Zcoordinate
    0.1228021571296267,       !- Vertex 4 Xcoordinate
    14.595210153609514,       !- Vertex 4 Ycoordinate
    24;                       !- Vertex 4 Zcoordinate

BUILDINGSURFACE:DETAILED,
    Block Poly_87_Residential_3 Storey 7 Wall 0010,    !- Name
    Wall,                     !- Surface Type
    HSCWZ_Residential_2005_ExtWall,    !- Construction Name
    Block Poly_87_Residential_3 Storey 7,    !- Zone Name
    ,                         !- Space Name
    Outdoors,                 !- Outside Boundary Condition
    ,                         !- Outside Boundary Condition Object
    SunExposed,               !- Sun Exposure
    WindExposed,              !- Wind Exposure
    autocalculate,            !- View Factor to Ground
    autocalculate,            !- Number of Vertices
    0.1228021571296267,       !- Vertex 1 Xcoordinate
    14.595210153609514,       !- Vertex 1 Ycoordinate
    24,                       !- Vertex 1 Zcoordinate
    0.1228021571296267,       !- Vertex 2 Xcoordinate
    14.595210153609514,       !- Vertex 2 Ycoordinate
    21,                       !- Vertex 2 Zcoordinate
    0,                        !- Vertex 3 Xcoordinate
    5.394811453763396,        !- Vertex 3 Ycoordinate
    21,                       !- Vertex 3 Zcoordinate
    0,                        !- Vertex 4 Xcoordinate
    5.394811453763396,        !- Vertex 4 Ycoordinate
    24;                       !- Vertex 4 Zcoordinate

BUILDINGSURFACE:DETAILED,
    Block Poly_87_Residential_3 Storey 7 Wall 0011,    !- Name
    Wall,                     !- Surface Type
    HSCWZ_Residential_2005_ExtWall,    !- Construction Name
    Block Poly_87_Residential_3 Storey 7,    !- Zone Name
    ,                         !- Space Name
    Outdoors,                 !- Outside Boundary Condition
    ,                         !- Outside Boundary Condition Object
    SunExposed,               !- Sun Exposure
    WindExposed,              !- Wind Exposure
    autocalculate,            !- View Factor to Ground
    autocalculate,            !- Number of Vertices
    0,                        !- Vertex 1 Xcoordinate
    5.394811453763396,        !- Vertex 1 Ycoordinate
    24,                       !- Vertex 1 Zcoordinate
    0,                        !- Vertex 2 Xcoordinate
    5.394811453763396,        !- Vertex 2 Ycoordinate
    21,                       !- Vertex 2 Zcoordinate
    8.370411821699236,        !- Vertex 3 Xcoordinate
    5.283091011922807,        !- Vertex 3 Ycoordinate
    21,                       !- Vertex 3 Zcoordinate
    8.370411821699236,        !- Vertex 4 Xcoordinate
    5.283091011922807,        !- Vertex 4 Ycoordinate
    24;                       !- Vertex 4 Zcoordinate

BUILDINGSURFACE:DETAILED,
    Block Poly_87_Residential_3 Storey 7 Wall 0012,    !- Name
    Wall,                     !- Surface Type
    HSCWZ_Residential_2005_ExtWall,    !- Construction Name
    Block Poly_87_Residential_3 Storey 7,    !- Zone Name
    ,                         !- Space Name
    Outdoors,                 !- Outside Boundary Condition
    ,                         !- Outside Boundary Condition Object
    SunExposed,               !- Sun Exposure
    WindExposed,              !- Wind Exposure
    autocalculate,            !- View Factor to Ground
    autocalculate,            !- Number of Vertices
    8.370411821699236,        !- Vertex 1 Xcoordinate
    5.283091011922807,        !- Vertex 1 Ycoordinate
    24,                       !- Vertex 1 Zcoordinate
    8.370411821699236,        !- Vertex 2 Xcoordinate
    5.283091011922807,        !- Vertex 2 Ycoordinate
    21,                       !- Vertex 2 Zcoordinate
    8.308274807932321,        !- Vertex 3 Xcoordinate
    0.6274677002802491,       !- Vertex 3 Ycoordinate
    21,                       !- Vertex 3 Zcoordinate
    8.308274807932321,        !- Vertex 4 Xcoordinate
    0.6274677002802491,       !- Vertex 4 Ycoordinate
    24;                       !- Vertex 4 Zcoordinate

BUILDINGSURFACE:DETAILED,
    Block Poly_87_Residential_3 Storey 8 Wall 0001,    !- Name
    Wall,                     !- Surface Type
    HSCWZ_Residential_2005_ExtWall,    !- Construction Name
    Block Poly_87_Residential_3 Storey 8,    !- Zone Name
    ,                         !- Space Name
    Outdoors,                 !- Outside Boundary Condition
    ,                         !- Outside Boundary Condition Object
    SunExposed,               !- Sun Exposure
    WindExposed,              !- Wind Exposure
    autocalculate,            !- View Factor to Ground
    autocalculate,            !- Number of Vertices
    8.308274807932321,        !- Vertex 1 Xcoordinate
    0.6274677002802491,       !- Vertex 1 Ycoordinate
    27,                       !- Vertex 1 Zcoordinate
    8.308274807932321,        !- Vertex 2 Xcoordinate
    0.6274677002802491,       !- Vertex 2 Ycoordinate
    24,                       !- Vertex 2 Zcoordinate
    18.9615307400818,         !- Vertex 3 Xcoordinate
    0.4852878404781222,       !- Vertex 3 Ycoordinate
    24,                       !- Vertex 3 Zcoordinate
    18.9615307400818,         !- Vertex 4 Xcoordinate
    0.4852878404781222,       !- Vertex 4 Ycoordinate
    27;                       !- Vertex 4 Zcoordinate

BUILDINGSURFACE:DETAILED,
    Block Poly_87_Residential_3 Storey 8 Wall 0002,    !- Name
    Wall,                     !- Surface Type
    HSCWZ_Residential_2005_ExtWall,    !- Construction Name
    Block Poly_87_Residential_3 Storey 8,    !- Zone Name
    ,                         !- Space Name
    Outdoors,                 !- Outside Boundary Condition
    ,                         !- Outside Boundary Condition Object
    SunExposed,               !- Sun Exposure
    WindExposed,              !- Wind Exposure
    autocalculate,            !- View Factor to Ground
    autocalculate,            !- Number of Vertices
    18.9615307400818,         !- Vertex 1 Xcoordinate
    0.4852878404781222,       !- Vertex 1 Ycoordinate
    27,                       !- Vertex 1 Zcoordinate
    18.9615307400818,         !- Vertex 2 Xcoordinate
    0.4852878404781222,       !- Vertex 2 Ycoordinate
    24,                       !- Vertex 2 Zcoordinate
    19.1173019867274,         !- Vertex 3 Xcoordinate
    5.028793456964195,        !- Vertex 3 Ycoordinate
    24,                       !- Vertex 3 Zcoordinate
    19.1173019867274,         !- Vertex 4 Xcoordinate
    5.028793456964195,        !- Vertex 4 Ycoordinate
    27;                       !- Vertex 4 Zcoordinate

BUILDINGSURFACE:DETAILED,
    Block Poly_87_Residential_3 Storey 8 Wall 0003,    !- Name
    Wall,                     !- Surface Type
    HSCWZ_Residential_2005_ExtWall,    !- Construction Name
    Block Poly_87_Residential_3 Storey 8,    !- Zone Name
    ,                         !- Space Name
    Outdoors,                 !- Outside Boundary Condition
    ,                         !- Outside Boundary Condition Object
    SunExposed,               !- Sun Exposure
    WindExposed,              !- Wind Exposure
    autocalculate,            !- View Factor to Ground
    autocalculate,            !- Number of Vertices
    19.1173019867274,         !- Vertex 1 Xcoordinate
    5.028793456964195,        !- Vertex 1 Ycoordinate
    27,                       !- Vertex 1 Zcoordinate
    19.1173019867274,         !- Vertex 2 Xcoordinate
    5.028793456964195,        !- Vertex 2 Ycoordinate
    24,                       !- Vertex 2 Zcoordinate
    36.42883482348407,        !- Vertex 3 Xcoordinate
    4.79777431068942,         !- Vertex 3 Ycoordinate
    24,                       !- Vertex 3 Zcoordinate
    36.42883482348407,        !- Vertex 4 Xcoordinate
    4.79777431068942,         !- Vertex 4 Ycoordinate
    27;                       !- Vertex 4 Zcoordinate

BUILDINGSURFACE:DETAILED,
    Block Poly_87_Residential_3 Storey 8 Wall 0004,    !- Name
    Wall,                     !- Surface Type
    HSCWZ_Residential_2005_ExtWall,    !- Construction Name
    Block Poly_87_Residential_3 Storey 8,    !- Zone Name
    ,                         !- Space Name
    Outdoors,                 !- Outside Boundary Condition
    ,                         !- Outside Boundary Condition Object
    SunExposed,               !- Sun Exposure
    WindExposed,              !- Wind Exposure
    autocalculate,            !- View Factor to Ground
    autocalculate,            !- Number of Vertices
    36.42883482348407,        !- Vertex 1 Xcoordinate
    4.79777431068942,         !- Vertex 1 Ycoordinate
    27,                       !- Vertex 1 Zcoordinate
    36.42883482348407,        !- Vertex 2 Xcoordinate
    4.79777431068942,         !- Vertex 2 Ycoordinate
    24,                       !- Vertex 2 Zcoordinate
    36.36671029863646,        !- Vertex 3 Xcoordinate
    0.1421512835659086,       !- Vertex 3 Ycoordinate
    24,                       !- Vertex 3 Zcoordinate
    36.36671029863646,        !- Vertex 4 Xcoordinate
    0.1421512835659086,       !- Vertex 4 Ycoordinate
    27;                       !- Vertex 4 Zcoordinate

BUILDINGSURFACE:DETAILED,
    Block Poly_87_Residential_3 Storey 8 Wall 0005,    !- Name
    Wall,                     !- Surface Type
    HSCWZ_Residential_2005_ExtWall,    !- Construction Name
    Block Poly_87_Residential_3 Storey 8,    !- Zone Name
    ,                         !- Space Name
    Outdoors,                 !- Outside Boundary Condition
    ,                         !- Outside Boundary Condition Object
    SunExposed,               !- Sun Exposure
    WindExposed,              !- Wind Exposure
    autocalculate,            !- View Factor to Ground
    autocalculate,            !- Number of Vertices
    36.36671029863646,        !- Vertex 1 Xcoordinate
    0.1421512835659086,       !- Vertex 1 Ycoordinate
    27,                       !- Vertex 1 Zcoordinate
    36.36671029863646,        !- Vertex 2 Xcoordinate
    0.1421512835659086,       !- Vertex 2 Ycoordinate
    24,                       !- Vertex 2 Zcoordinate
    47.01996569457697,        !- Vertex 3 Xcoordinate
    0,                        !- Vertex 3 Ycoordinate
    24,                       !- Vertex 3 Zcoordinate
    47.01996569457697,        !- Vertex 4 Xcoordinate
    0,                        !- Vertex 4 Ycoordinate
    27;                       !- Vertex 4 Zcoordinate

BUILDINGSURFACE:DETAILED,
    Block Poly_87_Residential_3 Storey 8 Wall 0006,    !- Name
    Wall,                     !- Surface Type
    HSCWZ_Residential_2005_ExtWall,    !- Construction Name
    Block Poly_87_Residential_3 Storey 8,    !- Zone Name
    ,                         !- Space Name
    Outdoors,                 !- Outside Boundary Condition
    ,                         !- Outside Boundary Condition Object
    SunExposed,               !- Sun Exposure
    WindExposed,              !- Wind Exposure
    autocalculate,            !- View Factor to Ground
    autocalculate,            !- Number of Vertices
    47.01996569457697,        !- Vertex 1 Xcoordinate
    0,                        !- Vertex 1 Ycoordinate
    27,                       !- Vertex 1 Zcoordinate
    47.01996569457697,        !- Vertex 2 Xcoordinate
    0,                        !- Vertex 2 Ycoordinate
    24,                       !- Vertex 2 Zcoordinate
    47.17720378719969,        !- Vertex 3 Xcoordinate
    4.654353759717196,        !- Vertex 3 Ycoordinate
    24,                       !- Vertex 3 Zcoordinate
    47.17720378719969,        !- Vertex 4 Xcoordinate
    4.654353759717196,        !- Vertex 4 Ycoordinate
    27;                       !- Vertex 4 Zcoordinate

BUILDINGSURFACE:DETAILED,
    Block Poly_87_Residential_3 Storey 8 Wall 0007,    !- Name
    Wall,                     !- Surface Type
    HSCWZ_Residential_2005_ExtWall,    !- Construction Name
    Block Poly_87_Residential_3 Storey 8,    !- Zone Name
    ,                         !- Space Name
    Outdoors,                 !- Outside Boundary Condition
    ,                         !- Outside Boundary Condition Object
    SunExposed,               !- Sun Exposure
    WindExposed,              !- Wind Exposure
    autocalculate,            !- View Factor to Ground
    autocalculate,            !- Number of Vertices
    47.17720378719969,        !- Vertex 1 Xcoordinate
    4.654353759717196,        !- Vertex 1 Ycoordinate
    27,                       !- Vertex 1 Zcoordinate
    47.17720378719969,        !- Vertex 2 Xcoordinate
    4.654353759717196,        !- Vertex 2 Ycoordinate
    24,                       !- Vertex 2 Zcoordinate
    56.211964038957376,       !- Vertex 3 Xcoordinate
    4.422939342446625,        !- Vertex 3 Ycoordinate
    24,                       !- Vertex 3 Zcoordinate
    56.211964038957376,       !- Vertex 4 Xcoordinate
    4.422939342446625,        !- Vertex 4 Ycoordinate
    27;                       !- Vertex 4 Zcoordinate

BUILDINGSURFACE:DETAILED,
    Block Poly_87_Residential_3 Storey 8 Wall 0008,    !- Name
    Wall,                     !- Surface Type
    HSCWZ_Residential_2005_ExtWall,    !- Construction Name
    Block Poly_87_Residential_3 Storey 8,    !- Zone Name
    ,                         !- Space Name
    Outdoors,                 !- Outside Boundary Condition
    ,                         !- Outside Boundary Condition Object
    SunExposed,               !- Sun Exposure
    WindExposed,              !- Wind Exposure
    autocalculate,            !- View Factor to Ground
    autocalculate,            !- Number of Vertices
    56.211964038957376,       !- Vertex 1 Xcoordinate
    4.422939342446625,        !- Vertex 1 Ycoordinate
    27,                       !- Vertex 1 Zcoordinate
    56.211964038957376,       !- Vertex 2 Xcoordinate
    4.422939342446625,        !- Vertex 2 Ycoordinate
    24,                       !- Vertex 2 Zcoordinate
    56.239598526794,          !- Vertex 3 Xcoordinate
    13.62460599699989,        !- Vertex 3 Ycoordinate
    24,                       !- Vertex 3 Zcoordinate
    56.239598526794,          !- Vertex 4 Xcoordinate
    13.62460599699989,        !- Vertex 4 Ycoordinate
    27;                       !- Vertex 4 Zcoordinate

BUILDINGSURFACE:DETAILED,
    Block Poly_87_Residential_3 Storey 8 Wall 0009,    !- Name
    Wall,                     !- Surface Type
    HSCWZ_Residential_2005_ExtWall,    !- Construction Name
    Block Poly_87_Residential_3 Storey 8,    !- Zone Name
    ,                         !- Space Name
    Outdoors,                 !- Outside Boundary Condition
    ,                         !- Outside Boundary Condition Object
    SunExposed,               !- Sun Exposure
    WindExposed,              !- Wind Exposure
    autocalculate,            !- View Factor to Ground
    autocalculate,            !- Number of Vertices
    56.239598526794,          !- Vertex 1 Xcoordinate
    13.62460599699989,        !- Vertex 1 Ycoordinate
    27,                       !- Vertex 1 Zcoordinate
    56.239598526794,          !- Vertex 2 Xcoordinate
    13.62460599699989,        !- Vertex 2 Ycoordinate
    24,                       !- Vertex 2 Zcoordinate
    0.1228021571296267,       !- Vertex 3 Xcoordinate
    14.595210153609514,       !- Vertex 3 Ycoordinate
    24,                       !- Vertex 3 Zcoordinate
    0.1228021571296267,       !- Vertex 4 Xcoordinate
    14.595210153609514,       !- Vertex 4 Ycoordinate
    27;                       !- Vertex 4 Zcoordinate

BUILDINGSURFACE:DETAILED,
    Block Poly_87_Residential_3 Storey 8 Wall 0010,    !- Name
    Wall,                     !- Surface Type
    HSCWZ_Residential_2005_ExtWall,    !- Construction Name
    Block Poly_87_Residential_3 Storey 8,    !- Zone Name
    ,                         !- Space Name
    Outdoors,                 !- Outside Boundary Condition
    ,                         !- Outside Boundary Condition Object
    SunExposed,               !- Sun Exposure
    WindExposed,              !- Wind Exposure
    autocalculate,            !- View Factor to Ground
    autocalculate,            !- Number of Vertices
    0.1228021571296267,       !- Vertex 1 Xcoordinate
    14.595210153609514,       !- Vertex 1 Ycoordinate
    27,                       !- Vertex 1 Zcoordinate
    0.1228021571296267,       !- Vertex 2 Xcoordinate
    14.595210153609514,       !- Vertex 2 Ycoordinate
    24,                       !- Vertex 2 Zcoordinate
    0,                        !- Vertex 3 Xcoordinate
    5.394811453763396,        !- Vertex 3 Ycoordinate
    24,                       !- Vertex 3 Zcoordinate
    0,                        !- Vertex 4 Xcoordinate
    5.394811453763396,        !- Vertex 4 Ycoordinate
    27;                       !- Vertex 4 Zcoordinate

BUILDINGSURFACE:DETAILED,
    Block Poly_87_Residential_3 Storey 8 Wall 0011,    !- Name
    Wall,                     !- Surface Type
    HSCWZ_Residential_2005_ExtWall,    !- Construction Name
    Block Poly_87_Residential_3 Storey 8,    !- Zone Name
    ,                         !- Space Name
    Outdoors,                 !- Outside Boundary Condition
    ,                         !- Outside Boundary Condition Object
    SunExposed,               !- Sun Exposure
    WindExposed,              !- Wind Exposure
    autocalculate,            !- View Factor to Ground
    autocalculate,            !- Number of Vertices
    0,                        !- Vertex 1 Xcoordinate
    5.394811453763396,        !- Vertex 1 Ycoordinate
    27,                       !- Vertex 1 Zcoordinate
    0,                        !- Vertex 2 Xcoordinate
    5.394811453763396,        !- Vertex 2 Ycoordinate
    24,                       !- Vertex 2 Zcoordinate
    8.370411821699236,        !- Vertex 3 Xcoordinate
    5.283091011922807,        !- Vertex 3 Ycoordinate
    24,                       !- Vertex 3 Zcoordinate
    8.370411821699236,        !- Vertex 4 Xcoordinate
    5.283091011922807,        !- Vertex 4 Ycoordinate
    27;                       !- Vertex 4 Zcoordinate

BUILDINGSURFACE:DETAILED,
    Block Poly_87_Residential_3 Storey 8 Wall 0012,    !- Name
    Wall,                     !- Surface Type
    HSCWZ_Residential_2005_ExtWall,    !- Construction Name
    Block Poly_87_Residential_3 Storey 8,    !- Zone Name
    ,                         !- Space Name
    Outdoors,                 !- Outside Boundary Condition
    ,                         !- Outside Boundary Condition Object
    SunExposed,               !- Sun Exposure
    WindExposed,              !- Wind Exposure
    autocalculate,            !- View Factor to Ground
    autocalculate,            !- Number of Vertices
    8.370411821699236,        !- Vertex 1 Xcoordinate
    5.283091011922807,        !- Vertex 1 Ycoordinate
    27,                       !- Vertex 1 Zcoordinate
    8.370411821699236,        !- Vertex 2 Xcoordinate
    5.283091011922807,        !- Vertex 2 Ycoordinate
    24,                       !- Vertex 2 Zcoordinate
    8.308274807932321,        !- Vertex 3 Xcoordinate
    0.6274677002802491,       !- Vertex 3 Ycoordinate
    24,                       !- Vertex 3 Zcoordinate
    8.308274807932321,        !- Vertex 4 Xcoordinate
    0.6274677002802491,       !- Vertex 4 Ycoordinate
    27;                       !- Vertex 4 Zcoordinate

BUILDINGSURFACE:DETAILED,
    Block Poly_87_Residential_3 Storey 9 Wall 0001,    !- Name
    Wall,                     !- Surface Type
    HSCWZ_Residential_2005_ExtWall,    !- Construction Name
    Block Poly_87_Residential_3 Storey 9,    !- Zone Name
    ,                         !- Space Name
    Outdoors,                 !- Outside Boundary Condition
    ,                         !- Outside Boundary Condition Object
    SunExposed,               !- Sun Exposure
    WindExposed,              !- Wind Exposure
    autocalculate,            !- View Factor to Ground
    autocalculate,            !- Number of Vertices
    8.308274807932321,        !- Vertex 1 Xcoordinate
    0.6274677002802491,       !- Vertex 1 Ycoordinate
    30,                       !- Vertex 1 Zcoordinate
    8.308274807932321,        !- Vertex 2 Xcoordinate
    0.6274677002802491,       !- Vertex 2 Ycoordinate
    27,                       !- Vertex 2 Zcoordinate
    18.9615307400818,         !- Vertex 3 Xcoordinate
    0.4852878404781222,       !- Vertex 3 Ycoordinate
    27,                       !- Vertex 3 Zcoordinate
    18.9615307400818,         !- Vertex 4 Xcoordinate
    0.4852878404781222,       !- Vertex 4 Ycoordinate
    30;                       !- Vertex 4 Zcoordinate

BUILDINGSURFACE:DETAILED,
    Block Poly_87_Residential_3 Storey 9 Wall 0002,    !- Name
    Wall,                     !- Surface Type
    HSCWZ_Residential_2005_ExtWall,    !- Construction Name
    Block Poly_87_Residential_3 Storey 9,    !- Zone Name
    ,                         !- Space Name
    Outdoors,                 !- Outside Boundary Condition
    ,                         !- Outside Boundary Condition Object
    SunExposed,               !- Sun Exposure
    WindExposed,              !- Wind Exposure
    autocalculate,            !- View Factor to Ground
    autocalculate,            !- Number of Vertices
    18.9615307400818,         !- Vertex 1 Xcoordinate
    0.4852878404781222,       !- Vertex 1 Ycoordinate
    30,                       !- Vertex 1 Zcoordinate
    18.9615307400818,         !- Vertex 2 Xcoordinate
    0.4852878404781222,       !- Vertex 2 Ycoordinate
    27,                       !- Vertex 2 Zcoordinate
    19.1173019867274,         !- Vertex 3 Xcoordinate
    5.028793456964195,        !- Vertex 3 Ycoordinate
    27,                       !- Vertex 3 Zcoordinate
    19.1173019867274,         !- Vertex 4 Xcoordinate
    5.028793456964195,        !- Vertex 4 Ycoordinate
    30;                       !- Vertex 4 Zcoordinate

BUILDINGSURFACE:DETAILED,
    Block Poly_87_Residential_3 Storey 9 Wall 0003,    !- Name
    Wall,                     !- Surface Type
    HSCWZ_Residential_2005_ExtWall,    !- Construction Name
    Block Poly_87_Residential_3 Storey 9,    !- Zone Name
    ,                         !- Space Name
    Outdoors,                 !- Outside Boundary Condition
    ,                         !- Outside Boundary Condition Object
    SunExposed,               !- Sun Exposure
    WindExposed,              !- Wind Exposure
    autocalculate,            !- View Factor to Ground
    autocalculate,            !- Number of Vertices
    19.1173019867274,         !- Vertex 1 Xcoordinate
    5.028793456964195,        !- Vertex 1 Ycoordinate
    30,                       !- Vertex 1 Zcoordinate
    19.1173019867274,         !- Vertex 2 Xcoordinate
    5.028793456964195,        !- Vertex 2 Ycoordinate
    27,                       !- Vertex 2 Zcoordinate
    36.42883482348407,        !- Vertex 3 Xcoordinate
    4.79777431068942,         !- Vertex 3 Ycoordinate
    27,                       !- Vertex 3 Zcoordinate
    36.42883482348407,        !- Vertex 4 Xcoordinate
    4.79777431068942,         !- Vertex 4 Ycoordinate
    30;                       !- Vertex 4 Zcoordinate

BUILDINGSURFACE:DETAILED,
    Block Poly_87_Residential_3 Storey 9 Wall 0004,    !- Name
    Wall,                     !- Surface Type
    HSCWZ_Residential_2005_ExtWall,    !- Construction Name
    Block Poly_87_Residential_3 Storey 9,    !- Zone Name
    ,                         !- Space Name
    Outdoors,                 !- Outside Boundary Condition
    ,                         !- Outside Boundary Condition Object
    SunExposed,               !- Sun Exposure
    WindExposed,              !- Wind Exposure
    autocalculate,            !- View Factor to Ground
    autocalculate,            !- Number of Vertices
    36.42883482348407,        !- Vertex 1 Xcoordinate
    4.79777431068942,         !- Vertex 1 Ycoordinate
    30,                       !- Vertex 1 Zcoordinate
    36.42883482348407,        !- Vertex 2 Xcoordinate
    4.79777431068942,         !- Vertex 2 Ycoordinate
    27,                       !- Vertex 2 Zcoordinate
    36.36671029863646,        !- Vertex 3 Xcoordinate
    0.1421512835659086,       !- Vertex 3 Ycoordinate
    27,                       !- Vertex 3 Zcoordinate
    36.36671029863646,        !- Vertex 4 Xcoordinate
    0.1421512835659086,       !- Vertex 4 Ycoordinate
    30;                       !- Vertex 4 Zcoordinate

BUILDINGSURFACE:DETAILED,
    Block Poly_87_Residential_3 Storey 9 Wall 0005,    !- Name
    Wall,                     !- Surface Type
    HSCWZ_Residential_2005_ExtWall,    !- Construction Name
    Block Poly_87_Residential_3 Storey 9,    !- Zone Name
    ,                         !- Space Name
    Outdoors,                 !- Outside Boundary Condition
    ,                         !- Outside Boundary Condition Object
    SunExposed,               !- Sun Exposure
    WindExposed,              !- Wind Exposure
    autocalculate,            !- View Factor to Ground
    autocalculate,            !- Number of Vertices
    36.36671029863646,        !- Vertex 1 Xcoordinate
    0.1421512835659086,       !- Vertex 1 Ycoordinate
    30,                       !- Vertex 1 Zcoordinate
    36.36671029863646,        !- Vertex 2 Xcoordinate
    0.1421512835659086,       !- Vertex 2 Ycoordinate
    27,                       !- Vertex 2 Zcoordinate
    47.01996569457697,        !- Vertex 3 Xcoordinate
    0,                        !- Vertex 3 Ycoordinate
    27,                       !- Vertex 3 Zcoordinate
    47.01996569457697,        !- Vertex 4 Xcoordinate
    0,                        !- Vertex 4 Ycoordinate
    30;                       !- Vertex 4 Zcoordinate

BUILDINGSURFACE:DETAILED,
    Block Poly_87_Residential_3 Storey 9 Wall 0006,    !- Name
    Wall,                     !- Surface Type
    HSCWZ_Residential_2005_ExtWall,    !- Construction Name
    Block Poly_87_Residential_3 Storey 9,    !- Zone Name
    ,                         !- Space Name
    Outdoors,                 !- Outside Boundary Condition
    ,                         !- Outside Boundary Condition Object
    SunExposed,               !- Sun Exposure
    WindExposed,              !- Wind Exposure
    autocalculate,            !- View Factor to Ground
    autocalculate,            !- Number of Vertices
    47.01996569457697,        !- Vertex 1 Xcoordinate
    0,                        !- Vertex 1 Ycoordinate
    30,                       !- Vertex 1 Zcoordinate
    47.01996569457697,        !- Vertex 2 Xcoordinate
    0,                        !- Vertex 2 Ycoordinate
    27,                       !- Vertex 2 Zcoordinate
    47.17720378719969,        !- Vertex 3 Xcoordinate
    4.654353759717196,        !- Vertex 3 Ycoordinate
    27,                       !- Vertex 3 Zcoordinate
    47.17720378719969,        !- Vertex 4 Xcoordinate
    4.654353759717196,        !- Vertex 4 Ycoordinate
    30;                       !- Vertex 4 Zcoordinate

BUILDINGSURFACE:DETAILED,
    Block Poly_87_Residential_3 Storey 9 Wall 0007,    !- Name
    Wall,                     !- Surface Type
    HSCWZ_Residential_2005_ExtWall,    !- Construction Name
    Block Poly_87_Residential_3 Storey 9,    !- Zone Name
    ,                         !- Space Name
    Outdoors,                 !- Outside Boundary Condition
    ,                         !- Outside Boundary Condition Object
    SunExposed,               !- Sun Exposure
    WindExposed,              !- Wind Exposure
    autocalculate,            !- View Factor to Ground
    autocalculate,            !- Number of Vertices
    47.17720378719969,        !- Vertex 1 Xcoordinate
    4.654353759717196,        !- Vertex 1 Ycoordinate
    30,                       !- Vertex 1 Zcoordinate
    47.17720378719969,        !- Vertex 2 Xcoordinate
    4.654353759717196,        !- Vertex 2 Ycoordinate
    27,                       !- Vertex 2 Zcoordinate
    56.211964038957376,       !- Vertex 3 Xcoordinate
    4.422939342446625,        !- Vertex 3 Ycoordinate
    27,                       !- Vertex 3 Zcoordinate
    56.211964038957376,       !- Vertex 4 Xcoordinate
    4.422939342446625,        !- Vertex 4 Ycoordinate
    30;                       !- Vertex 4 Zcoordinate

BUILDINGSURFACE:DETAILED,
    Block Poly_87_Residential_3 Storey 9 Wall 0008,    !- Name
    Wall,                     !- Surface Type
    HSCWZ_Residential_2005_ExtWall,    !- Construction Name
    Block Poly_87_Residential_3 Storey 9,    !- Zone Name
    ,                         !- Space Name
    Outdoors,                 !- Outside Boundary Condition
    ,                         !- Outside Boundary Condition Object
    SunExposed,               !- Sun Exposure
    WindExposed,              !- Wind Exposure
    autocalculate,            !- View Factor to Ground
    autocalculate,            !- Number of Vertices
    56.211964038957376,       !- Vertex 1 Xcoordinate
    4.422939342446625,        !- Vertex 1 Ycoordinate
    30,                       !- Vertex 1 Zcoordinate
    56.211964038957376,       !- Vertex 2 Xcoordinate
    4.422939342446625,        !- Vertex 2 Ycoordinate
    27,                       !- Vertex 2 Zcoordinate
    56.239598526794,          !- Vertex 3 Xcoordinate
    13.62460599699989,        !- Vertex 3 Ycoordinate
    27,                       !- Vertex 3 Zcoordinate
    56.239598526794,          !- Vertex 4 Xcoordinate
    13.62460599699989,        !- Vertex 4 Ycoordinate
    30;                       !- Vertex 4 Zcoordinate

BUILDINGSURFACE:DETAILED,
    Block Poly_87_Residential_3 Storey 9 Wall 0009,    !- Name
    Wall,                     !- Surface Type
    HSCWZ_Residential_2005_ExtWall,    !- Construction Name
    Block Poly_87_Residential_3 Storey 9,    !- Zone Name
    ,                         !- Space Name
    Outdoors,                 !- Outside Boundary Condition
    ,                         !- Outside Boundary Condition Object
    SunExposed,               !- Sun Exposure
    WindExposed,              !- Wind Exposure
    autocalculate,            !- View Factor to Ground
    autocalculate,            !- Number of Vertices
    56.239598526794,          !- Vertex 1 Xcoordinate
    13.62460599699989,        !- Vertex 1 Ycoordinate
    30,                       !- Vertex 1 Zcoordinate
    56.239598526794,          !- Vertex 2 Xcoordinate
    13.62460599699989,        !- Vertex 2 Ycoordinate
    27,                       !- Vertex 2 Zcoordinate
    0.1228021571296267,       !- Vertex 3 Xcoordinate
    14.595210153609514,       !- Vertex 3 Ycoordinate
    27,                       !- Vertex 3 Zcoordinate
    0.1228021571296267,       !- Vertex 4 Xcoordinate
    14.595210153609514,       !- Vertex 4 Ycoordinate
    30;                       !- Vertex 4 Zcoordinate

BUILDINGSURFACE:DETAILED,
    Block Poly_87_Residential_3 Storey 9 Wall 0010,    !- Name
    Wall,                     !- Surface Type
    HSCWZ_Residential_2005_ExtWall,    !- Construction Name
    Block Poly_87_Residential_3 Storey 9,    !- Zone Name
    ,                         !- Space Name
    Outdoors,                 !- Outside Boundary Condition
    ,                         !- Outside Boundary Condition Object
    SunExposed,               !- Sun Exposure
    WindExposed,              !- Wind Exposure
    autocalculate,            !- View Factor to Ground
    autocalculate,            !- Number of Vertices
    0.1228021571296267,       !- Vertex 1 Xcoordinate
    14.595210153609514,       !- Vertex 1 Ycoordinate
    30,                       !- Vertex 1 Zcoordinate
    0.1228021571296267,       !- Vertex 2 Xcoordinate
    14.595210153609514,       !- Vertex 2 Ycoordinate
    27,                       !- Vertex 2 Zcoordinate
    0,                        !- Vertex 3 Xcoordinate
    5.394811453763396,        !- Vertex 3 Ycoordinate
    27,                       !- Vertex 3 Zcoordinate
    0,                        !- Vertex 4 Xcoordinate
    5.394811453763396,        !- Vertex 4 Ycoordinate
    30;                       !- Vertex 4 Zcoordinate

BUILDINGSURFACE:DETAILED,
    Block Poly_87_Residential_3 Storey 9 Wall 0011,    !- Name
    Wall,                     !- Surface Type
    HSCWZ_Residential_2005_ExtWall,    !- Construction Name
    Block Poly_87_Residential_3 Storey 9,    !- Zone Name
    ,                         !- Space Name
    Outdoors,                 !- Outside Boundary Condition
    ,                         !- Outside Boundary Condition Object
    SunExposed,               !- Sun Exposure
    WindExposed,              !- Wind Exposure
    autocalculate,            !- View Factor to Ground
    autocalculate,            !- Number of Vertices
    0,                        !- Vertex 1 Xcoordinate
    5.394811453763396,        !- Vertex 1 Ycoordinate
    30,                       !- Vertex 1 Zcoordinate
    0,                        !- Vertex 2 Xcoordinate
    5.394811453763396,        !- Vertex 2 Ycoordinate
    27,                       !- Vertex 2 Zcoordinate
    8.370411821699236,        !- Vertex 3 Xcoordinate
    5.283091011922807,        !- Vertex 3 Ycoordinate
    27,                       !- Vertex 3 Zcoordinate
    8.370411821699236,        !- Vertex 4 Xcoordinate
    5.283091011922807,        !- Vertex 4 Ycoordinate
    30;                       !- Vertex 4 Zcoordinate

BUILDINGSURFACE:DETAILED,
    Block Poly_87_Residential_3 Storey 9 Wall 0012,    !- Name
    Wall,                     !- Surface Type
    HSCWZ_Residential_2005_ExtWall,    !- Construction Name
    Block Poly_87_Residential_3 Storey 9,    !- Zone Name
    ,                         !- Space Name
    Outdoors,                 !- Outside Boundary Condition
    ,                         !- Outside Boundary Condition Object
    SunExposed,               !- Sun Exposure
    WindExposed,              !- Wind Exposure
    autocalculate,            !- View Factor to Ground
    autocalculate,            !- Number of Vertices
    8.370411821699236,        !- Vertex 1 Xcoordinate
    5.283091011922807,        !- Vertex 1 Ycoordinate
    30,                       !- Vertex 1 Zcoordinate
    8.370411821699236,        !- Vertex 2 Xcoordinate
    5.283091011922807,        !- Vertex 2 Ycoordinate
    27,                       !- Vertex 2 Zcoordinate
    8.308274807932321,        !- Vertex 3 Xcoordinate
    0.6274677002802491,       !- Vertex 3 Ycoordinate
    27,                       !- Vertex 3 Zcoordinate
    8.308274807932321,        !- Vertex 4 Xcoordinate
    0.6274677002802491,       !- Vertex 4 Ycoordinate
    30;                       !- Vertex 4 Zcoordinate

BUILDINGSURFACE:DETAILED,
    Block Poly_87_Residential_3 Storey 10 Wall 0001,    !- Name
    Wall,                     !- Surface Type
    HSCWZ_Residential_2005_ExtWall,    !- Construction Name
    Block Poly_87_Residential_3 Storey 10,    !- Zone Name
    ,                         !- Space Name
    Outdoors,                 !- Outside Boundary Condition
    ,                         !- Outside Boundary Condition Object
    SunExposed,               !- Sun Exposure
    WindExposed,              !- Wind Exposure
    autocalculate,            !- View Factor to Ground
    autocalculate,            !- Number of Vertices
    8.308274807932321,        !- Vertex 1 Xcoordinate
    0.6274677002802491,       !- Vertex 1 Ycoordinate
    33,                       !- Vertex 1 Zcoordinate
    8.308274807932321,        !- Vertex 2 Xcoordinate
    0.6274677002802491,       !- Vertex 2 Ycoordinate
    30,                       !- Vertex 2 Zcoordinate
    18.9615307400818,         !- Vertex 3 Xcoordinate
    0.4852878404781222,       !- Vertex 3 Ycoordinate
    30,                       !- Vertex 3 Zcoordinate
    18.9615307400818,         !- Vertex 4 Xcoordinate
    0.4852878404781222,       !- Vertex 4 Ycoordinate
    33;                       !- Vertex 4 Zcoordinate

BUILDINGSURFACE:DETAILED,
    Block Poly_87_Residential_3 Storey 10 Wall 0002,    !- Name
    Wall,                     !- Surface Type
    HSCWZ_Residential_2005_ExtWall,    !- Construction Name
    Block Poly_87_Residential_3 Storey 10,    !- Zone Name
    ,                         !- Space Name
    Outdoors,                 !- Outside Boundary Condition
    ,                         !- Outside Boundary Condition Object
    SunExposed,               !- Sun Exposure
    WindExposed,              !- Wind Exposure
    autocalculate,            !- View Factor to Ground
    autocalculate,            !- Number of Vertices
    18.9615307400818,         !- Vertex 1 Xcoordinate
    0.4852878404781222,       !- Vertex 1 Ycoordinate
    33,                       !- Vertex 1 Zcoordinate
    18.9615307400818,         !- Vertex 2 Xcoordinate
    0.4852878404781222,       !- Vertex 2 Ycoordinate
    30,                       !- Vertex 2 Zcoordinate
    19.1173019867274,         !- Vertex 3 Xcoordinate
    5.028793456964195,        !- Vertex 3 Ycoordinate
    30,                       !- Vertex 3 Zcoordinate
    19.1173019867274,         !- Vertex 4 Xcoordinate
    5.028793456964195,        !- Vertex 4 Ycoordinate
    33;                       !- Vertex 4 Zcoordinate

BUILDINGSURFACE:DETAILED,
    Block Poly_87_Residential_3 Storey 10 Wall 0003,    !- Name
    Wall,                     !- Surface Type
    HSCWZ_Residential_2005_ExtWall,    !- Construction Name
    Block Poly_87_Residential_3 Storey 10,    !- Zone Name
    ,                         !- Space Name
    Outdoors,                 !- Outside Boundary Condition
    ,                         !- Outside Boundary Condition Object
    SunExposed,               !- Sun Exposure
    WindExposed,              !- Wind Exposure
    autocalculate,            !- View Factor to Ground
    autocalculate,            !- Number of Vertices
    19.1173019867274,         !- Vertex 1 Xcoordinate
    5.028793456964195,        !- Vertex 1 Ycoordinate
    33,                       !- Vertex 1 Zcoordinate
    19.1173019867274,         !- Vertex 2 Xcoordinate
    5.028793456964195,        !- Vertex 2 Ycoordinate
    30,                       !- Vertex 2 Zcoordinate
    36.42883482348407,        !- Vertex 3 Xcoordinate
    4.79777431068942,         !- Vertex 3 Ycoordinate
    30,                       !- Vertex 3 Zcoordinate
    36.42883482348407,        !- Vertex 4 Xcoordinate
    4.79777431068942,         !- Vertex 4 Ycoordinate
    33;                       !- Vertex 4 Zcoordinate

BUILDINGSURFACE:DETAILED,
    Block Poly_87_Residential_3 Storey 10 Wall 0004,    !- Name
    Wall,                     !- Surface Type
    HSCWZ_Residential_2005_ExtWall,    !- Construction Name
    Block Poly_87_Residential_3 Storey 10,    !- Zone Name
    ,                         !- Space Name
    Outdoors,                 !- Outside Boundary Condition
    ,                         !- Outside Boundary Condition Object
    SunExposed,               !- Sun Exposure
    WindExposed,              !- Wind Exposure
    autocalculate,            !- View Factor to Ground
    autocalculate,            !- Number of Vertices
    36.42883482348407,        !- Vertex 1 Xcoordinate
    4.79777431068942,         !- Vertex 1 Ycoordinate
    33,                       !- Vertex 1 Zcoordinate
    36.42883482348407,        !- Vertex 2 Xcoordinate
    4.79777431068942,         !- Vertex 2 Ycoordinate
    30,                       !- Vertex 2 Zcoordinate
    36.36671029863646,        !- Vertex 3 Xcoordinate
    0.1421512835659086,       !- Vertex 3 Ycoordinate
    30,                       !- Vertex 3 Zcoordinate
    36.36671029863646,        !- Vertex 4 Xcoordinate
    0.1421512835659086,       !- Vertex 4 Ycoordinate
    33;                       !- Vertex 4 Zcoordinate

BUILDINGSURFACE:DETAILED,
    Block Poly_87_Residential_3 Storey 10 Wall 0005,    !- Name
    Wall,                     !- Surface Type
    HSCWZ_Residential_2005_ExtWall,    !- Construction Name
    Block Poly_87_Residential_3 Storey 10,    !- Zone Name
    ,                         !- Space Name
    Outdoors,                 !- Outside Boundary Condition
    ,                         !- Outside Boundary Condition Object
    SunExposed,               !- Sun Exposure
    WindExposed,              !- Wind Exposure
    autocalculate,            !- View Factor to Ground
    autocalculate,            !- Number of Vertices
    36.36671029863646,        !- Vertex 1 Xcoordinate
    0.1421512835659086,       !- Vertex 1 Ycoordinate
    33,                       !- Vertex 1 Zcoordinate
    36.36671029863646,        !- Vertex 2 Xcoordinate
    0.1421512835659086,       !- Vertex 2 Ycoordinate
    30,                       !- Vertex 2 Zcoordinate
    47.01996569457697,        !- Vertex 3 Xcoordinate
    0,                        !- Vertex 3 Ycoordinate
    30,                       !- Vertex 3 Zcoordinate
    47.01996569457697,        !- Vertex 4 Xcoordinate
    0,                        !- Vertex 4 Ycoordinate
    33;                       !- Vertex 4 Zcoordinate

BUILDINGSURFACE:DETAILED,
    Block Poly_87_Residential_3 Storey 10 Wall 0006,    !- Name
    Wall,                     !- Surface Type
    HSCWZ_Residential_2005_ExtWall,    !- Construction Name
    Block Poly_87_Residential_3 Storey 10,    !- Zone Name
    ,                         !- Space Name
    Outdoors,                 !- Outside Boundary Condition
    ,                         !- Outside Boundary Condition Object
    SunExposed,               !- Sun Exposure
    WindExposed,              !- Wind Exposure
    autocalculate,            !- View Factor to Ground
    autocalculate,            !- Number of Vertices
    47.01996569457697,        !- Vertex 1 Xcoordinate
    0,                        !- Vertex 1 Ycoordinate
    33,                       !- Vertex 1 Zcoordinate
    47.01996569457697,        !- Vertex 2 Xcoordinate
    0,                        !- Vertex 2 Ycoordinate
    30,                       !- Vertex 2 Zcoordinate
    47.17720378719969,        !- Vertex 3 Xcoordinate
    4.654353759717196,        !- Vertex 3 Ycoordinate
    30,                       !- Vertex 3 Zcoordinate
    47.17720378719969,        !- Vertex 4 Xcoordinate
    4.654353759717196,        !- Vertex 4 Ycoordinate
    33;                       !- Vertex 4 Zcoordinate

BUILDINGSURFACE:DETAILED,
    Block Poly_87_Residential_3 Storey 10 Wall 0007,    !- Name
    Wall,                     !- Surface Type
    HSCWZ_Residential_2005_ExtWall,    !- Construction Name
    Block Poly_87_Residential_3 Storey 10,    !- Zone Name
    ,                         !- Space Name
    Outdoors,                 !- Outside Boundary Condition
    ,                         !- Outside Boundary Condition Object
    SunExposed,               !- Sun Exposure
    WindExposed,              !- Wind Exposure
    autocalculate,            !- View Factor to Ground
    autocalculate,            !- Number of Vertices
    47.17720378719969,        !- Vertex 1 Xcoordinate
    4.654353759717196,        !- Vertex 1 Ycoordinate
    33,                       !- Vertex 1 Zcoordinate
    47.17720378719969,        !- Vertex 2 Xcoordinate
    4.654353759717196,        !- Vertex 2 Ycoordinate
    30,                       !- Vertex 2 Zcoordinate
    56.211964038957376,       !- Vertex 3 Xcoordinate
    4.422939342446625,        !- Vertex 3 Ycoordinate
    30,                       !- Vertex 3 Zcoordinate
    56.211964038957376,       !- Vertex 4 Xcoordinate
    4.422939342446625,        !- Vertex 4 Ycoordinate
    33;                       !- Vertex 4 Zcoordinate

BUILDINGSURFACE:DETAILED,
    Block Poly_87_Residential_3 Storey 10 Wall 0008,    !- Name
    Wall,                     !- Surface Type
    HSCWZ_Residential_2005_ExtWall,    !- Construction Name
    Block Poly_87_Residential_3 Storey 10,    !- Zone Name
    ,                         !- Space Name
    Outdoors,                 !- Outside Boundary Condition
    ,                         !- Outside Boundary Condition Object
    SunExposed,               !- Sun Exposure
    WindExposed,              !- Wind Exposure
    autocalculate,            !- View Factor to Ground
    autocalculate,            !- Number of Vertices
    56.211964038957376,       !- Vertex 1 Xcoordinate
    4.422939342446625,        !- Vertex 1 Ycoordinate
    33,                       !- Vertex 1 Zcoordinate
    56.211964038957376,       !- Vertex 2 Xcoordinate
    4.422939342446625,        !- Vertex 2 Ycoordinate
    30,                       !- Vertex 2 Zcoordinate
    56.239598526794,          !- Vertex 3 Xcoordinate
    13.62460599699989,        !- Vertex 3 Ycoordinate
    30,                       !- Vertex 3 Zcoordinate
    56.239598526794,          !- Vertex 4 Xcoordinate
    13.62460599699989,        !- Vertex 4 Ycoordinate
    33;                       !- Vertex 4 Zcoordinate

BUILDINGSURFACE:DETAILED,
    Block Poly_87_Residential_3 Storey 10 Wall 0009,    !- Name
    Wall,                     !- Surface Type
    HSCWZ_Residential_2005_ExtWall,    !- Construction Name
    Block Poly_87_Residential_3 Storey 10,    !- Zone Name
    ,                         !- Space Name
    Outdoors,                 !- Outside Boundary Condition
    ,                         !- Outside Boundary Condition Object
    SunExposed,               !- Sun Exposure
    WindExposed,              !- Wind Exposure
    autocalculate,            !- View Factor to Ground
    autocalculate,            !- Number of Vertices
    56.239598526794,          !- Vertex 1 Xcoordinate
    13.62460599699989,        !- Vertex 1 Ycoordinate
    33,                       !- Vertex 1 Zcoordinate
    56.239598526794,          !- Vertex 2 Xcoordinate
    13.62460599699989,        !- Vertex 2 Ycoordinate
    30,                       !- Vertex 2 Zcoordinate
    0.1228021571296267,       !- Vertex 3 Xcoordinate
    14.595210153609514,       !- Vertex 3 Ycoordinate
    30,                       !- Vertex 3 Zcoordinate
    0.1228021571296267,       !- Vertex 4 Xcoordinate
    14.595210153609514,       !- Vertex 4 Ycoordinate
    33;                       !- Vertex 4 Zcoordinate

BUILDINGSURFACE:DETAILED,
    Block Poly_87_Residential_3 Storey 10 Wall 0010,    !- Name
    Wall,                     !- Surface Type
    HSCWZ_Residential_2005_ExtWall,    !- Construction Name
    Block Poly_87_Residential_3 Storey 10,    !- Zone Name
    ,                         !- Space Name
    Outdoors,                 !- Outside Boundary Condition
    ,                         !- Outside Boundary Condition Object
    SunExposed,               !- Sun Exposure
    WindExposed,              !- Wind Exposure
    autocalculate,            !- View Factor to Ground
    autocalculate,            !- Number of Vertices
    0.1228021571296267,       !- Vertex 1 Xcoordinate
    14.595210153609514,       !- Vertex 1 Ycoordinate
    33,                       !- Vertex 1 Zcoordinate
    0.1228021571296267,       !- Vertex 2 Xcoordinate
    14.595210153609514,       !- Vertex 2 Ycoordinate
    30,                       !- Vertex 2 Zcoordinate
    0,                        !- Vertex 3 Xcoordinate
    5.394811453763396,        !- Vertex 3 Ycoordinate
    30,                       !- Vertex 3 Zcoordinate
    0,                        !- Vertex 4 Xcoordinate
    5.394811453763396,        !- Vertex 4 Ycoordinate
    33;                       !- Vertex 4 Zcoordinate

BUILDINGSURFACE:DETAILED,
    Block Poly_87_Residential_3 Storey 10 Wall 0011,    !- Name
    Wall,                     !- Surface Type
    HSCWZ_Residential_2005_ExtWall,    !- Construction Name
    Block Poly_87_Residential_3 Storey 10,    !- Zone Name
    ,                         !- Space Name
    Outdoors,                 !- Outside Boundary Condition
    ,                         !- Outside Boundary Condition Object
    SunExposed,               !- Sun Exposure
    WindExposed,              !- Wind Exposure
    autocalculate,            !- View Factor to Ground
    autocalculate,            !- Number of Vertices
    0,                        !- Vertex 1 Xcoordinate
    5.394811453763396,        !- Vertex 1 Ycoordinate
    33,                       !- Vertex 1 Zcoordinate
    0,                        !- Vertex 2 Xcoordinate
    5.394811453763396,        !- Vertex 2 Ycoordinate
    30,                       !- Vertex 2 Zcoordinate
    8.370411821699236,        !- Vertex 3 Xcoordinate
    5.283091011922807,        !- Vertex 3 Ycoordinate
    30,                       !- Vertex 3 Zcoordinate
    8.370411821699236,        !- Vertex 4 Xcoordinate
    5.283091011922807,        !- Vertex 4 Ycoordinate
    33;                       !- Vertex 4 Zcoordinate

BUILDINGSURFACE:DETAILED,
    Block Poly_87_Residential_3 Storey 10 Wall 0012,    !- Name
    Wall,                     !- Surface Type
    HSCWZ_Residential_2005_ExtWall,    !- Construction Name
    Block Poly_87_Residential_3 Storey 10,    !- Zone Name
    ,                         !- Space Name
    Outdoors,                 !- Outside Boundary Condition
    ,                         !- Outside Boundary Condition Object
    SunExposed,               !- Sun Exposure
    WindExposed,              !- Wind Exposure
    autocalculate,            !- View Factor to Ground
    autocalculate,            !- Number of Vertices
    8.370411821699236,        !- Vertex 1 Xcoordinate
    5.283091011922807,        !- Vertex 1 Ycoordinate
    33,                       !- Vertex 1 Zcoordinate
    8.370411821699236,        !- Vertex 2 Xcoordinate
    5.283091011922807,        !- Vertex 2 Ycoordinate
    30,                       !- Vertex 2 Zcoordinate
    8.308274807932321,        !- Vertex 3 Xcoordinate
    0.6274677002802491,       !- Vertex 3 Ycoordinate
    30,                       !- Vertex 3 Zcoordinate
    8.308274807932321,        !- Vertex 4 Xcoordinate
    0.6274677002802491,       !- Vertex 4 Ycoordinate
    33;                       !- Vertex 4 Zcoordinate

BUILDINGSURFACE:DETAILED,
    Block Poly_87_Residential_3 Storey 11 Wall 0001,    !- Name
    Wall,                     !- Surface Type
    HSCWZ_Residential_2005_ExtWall,    !- Construction Name
    Block Poly_87_Residential_3 Storey 11,    !- Zone Name
    ,                         !- Space Name
    Outdoors,                 !- Outside Boundary Condition
    ,                         !- Outside Boundary Condition Object
    SunExposed,               !- Sun Exposure
    WindExposed,              !- Wind Exposure
    autocalculate,            !- View Factor to Ground
    autocalculate,            !- Number of Vertices
    8.308274807932321,        !- Vertex 1 Xcoordinate
    0.6274677002802491,       !- Vertex 1 Ycoordinate
    36,                       !- Vertex 1 Zcoordinate
    8.308274807932321,        !- Vertex 2 Xcoordinate
    0.6274677002802491,       !- Vertex 2 Ycoordinate
    33,                       !- Vertex 2 Zcoordinate
    18.9615307400818,         !- Vertex 3 Xcoordinate
    0.4852878404781222,       !- Vertex 3 Ycoordinate
    33,                       !- Vertex 3 Zcoordinate
    18.9615307400818,         !- Vertex 4 Xcoordinate
    0.4852878404781222,       !- Vertex 4 Ycoordinate
    36;                       !- Vertex 4 Zcoordinate

BUILDINGSURFACE:DETAILED,
    Block Poly_87_Residential_3 Storey 11 Wall 0002,    !- Name
    Wall,                     !- Surface Type
    HSCWZ_Residential_2005_ExtWall,    !- Construction Name
    Block Poly_87_Residential_3 Storey 11,    !- Zone Name
    ,                         !- Space Name
    Outdoors,                 !- Outside Boundary Condition
    ,                         !- Outside Boundary Condition Object
    SunExposed,               !- Sun Exposure
    WindExposed,              !- Wind Exposure
    autocalculate,            !- View Factor to Ground
    autocalculate,            !- Number of Vertices
    18.9615307400818,         !- Vertex 1 Xcoordinate
    0.4852878404781222,       !- Vertex 1 Ycoordinate
    36,                       !- Vertex 1 Zcoordinate
    18.9615307400818,         !- Vertex 2 Xcoordinate
    0.4852878404781222,       !- Vertex 2 Ycoordinate
    33,                       !- Vertex 2 Zcoordinate
    19.1173019867274,         !- Vertex 3 Xcoordinate
    5.028793456964195,        !- Vertex 3 Ycoordinate
    33,                       !- Vertex 3 Zcoordinate
    19.1173019867274,         !- Vertex 4 Xcoordinate
    5.028793456964195,        !- Vertex 4 Ycoordinate
    36;                       !- Vertex 4 Zcoordinate

BUILDINGSURFACE:DETAILED,
    Block Poly_87_Residential_3 Storey 11 Wall 0003,    !- Name
    Wall,                     !- Surface Type
    HSCWZ_Residential_2005_ExtWall,    !- Construction Name
    Block Poly_87_Residential_3 Storey 11,    !- Zone Name
    ,                         !- Space Name
    Outdoors,                 !- Outside Boundary Condition
    ,                         !- Outside Boundary Condition Object
    SunExposed,               !- Sun Exposure
    WindExposed,              !- Wind Exposure
    autocalculate,            !- View Factor to Ground
    autocalculate,            !- Number of Vertices
    19.1173019867274,         !- Vertex 1 Xcoordinate
    5.028793456964195,        !- Vertex 1 Ycoordinate
    36,                       !- Vertex 1 Zcoordinate
    19.1173019867274,         !- Vertex 2 Xcoordinate
    5.028793456964195,        !- Vertex 2 Ycoordinate
    33,                       !- Vertex 2 Zcoordinate
    36.42883482348407,        !- Vertex 3 Xcoordinate
    4.79777431068942,         !- Vertex 3 Ycoordinate
    33,                       !- Vertex 3 Zcoordinate
    36.42883482348407,        !- Vertex 4 Xcoordinate
    4.79777431068942,         !- Vertex 4 Ycoordinate
    36;                       !- Vertex 4 Zcoordinate

BUILDINGSURFACE:DETAILED,
    Block Poly_87_Residential_3 Storey 11 Wall 0004,    !- Name
    Wall,                     !- Surface Type
    HSCWZ_Residential_2005_ExtWall,    !- Construction Name
    Block Poly_87_Residential_3 Storey 11,    !- Zone Name
    ,                         !- Space Name
    Outdoors,                 !- Outside Boundary Condition
    ,                         !- Outside Boundary Condition Object
    SunExposed,               !- Sun Exposure
    WindExposed,              !- Wind Exposure
    autocalculate,            !- View Factor to Ground
    autocalculate,            !- Number of Vertices
    36.42883482348407,        !- Vertex 1 Xcoordinate
    4.79777431068942,         !- Vertex 1 Ycoordinate
    36,                       !- Vertex 1 Zcoordinate
    36.42883482348407,        !- Vertex 2 Xcoordinate
    4.79777431068942,         !- Vertex 2 Ycoordinate
    33,                       !- Vertex 2 Zcoordinate
    36.36671029863646,        !- Vertex 3 Xcoordinate
    0.1421512835659086,       !- Vertex 3 Ycoordinate
    33,                       !- Vertex 3 Zcoordinate
    36.36671029863646,        !- Vertex 4 Xcoordinate
    0.1421512835659086,       !- Vertex 4 Ycoordinate
    36;                       !- Vertex 4 Zcoordinate

BUILDINGSURFACE:DETAILED,
    Block Poly_87_Residential_3 Storey 11 Wall 0005,    !- Name
    Wall,                     !- Surface Type
    HSCWZ_Residential_2005_ExtWall,    !- Construction Name
    Block Poly_87_Residential_3 Storey 11,    !- Zone Name
    ,                         !- Space Name
    Outdoors,                 !- Outside Boundary Condition
    ,                         !- Outside Boundary Condition Object
    SunExposed,               !- Sun Exposure
    WindExposed,              !- Wind Exposure
    autocalculate,            !- View Factor to Ground
    autocalculate,            !- Number of Vertices
    36.36671029863646,        !- Vertex 1 Xcoordinate
    0.1421512835659086,       !- Vertex 1 Ycoordinate
    36,                       !- Vertex 1 Zcoordinate
    36.36671029863646,        !- Vertex 2 Xcoordinate
    0.1421512835659086,       !- Vertex 2 Ycoordinate
    33,                       !- Vertex 2 Zcoordinate
    47.01996569457697,        !- Vertex 3 Xcoordinate
    0,                        !- Vertex 3 Ycoordinate
    33,                       !- Vertex 3 Zcoordinate
    47.01996569457697,        !- Vertex 4 Xcoordinate
    0,                        !- Vertex 4 Ycoordinate
    36;                       !- Vertex 4 Zcoordinate

BUILDINGSURFACE:DETAILED,
    Block Poly_87_Residential_3 Storey 11 Wall 0006,    !- Name
    Wall,                     !- Surface Type
    HSCWZ_Residential_2005_ExtWall,    !- Construction Name
    Block Poly_87_Residential_3 Storey 11,    !- Zone Name
    ,                         !- Space Name
    Outdoors,                 !- Outside Boundary Condition
    ,                         !- Outside Boundary Condition Object
    SunExposed,               !- Sun Exposure
    WindExposed,              !- Wind Exposure
    autocalculate,            !- View Factor to Ground
    autocalculate,            !- Number of Vertices
    47.01996569457697,        !- Vertex 1 Xcoordinate
    0,                        !- Vertex 1 Ycoordinate
    36,                       !- Vertex 1 Zcoordinate
    47.01996569457697,        !- Vertex 2 Xcoordinate
    0,                        !- Vertex 2 Ycoordinate
    33,                       !- Vertex 2 Zcoordinate
    47.17720378719969,        !- Vertex 3 Xcoordinate
    4.654353759717196,        !- Vertex 3 Ycoordinate
    33,                       !- Vertex 3 Zcoordinate
    47.17720378719969,        !- Vertex 4 Xcoordinate
    4.654353759717196,        !- Vertex 4 Ycoordinate
    36;                       !- Vertex 4 Zcoordinate

BUILDINGSURFACE:DETAILED,
    Block Poly_87_Residential_3 Storey 11 Wall 0007,    !- Name
    Wall,                     !- Surface Type
    HSCWZ_Residential_2005_ExtWall,    !- Construction Name
    Block Poly_87_Residential_3 Storey 11,    !- Zone Name
    ,                         !- Space Name
    Outdoors,                 !- Outside Boundary Condition
    ,                         !- Outside Boundary Condition Object
    SunExposed,               !- Sun Exposure
    WindExposed,              !- Wind Exposure
    autocalculate,            !- View Factor to Ground
    autocalculate,            !- Number of Vertices
    47.17720378719969,        !- Vertex 1 Xcoordinate
    4.654353759717196,        !- Vertex 1 Ycoordinate
    36,                       !- Vertex 1 Zcoordinate
    47.17720378719969,        !- Vertex 2 Xcoordinate
    4.654353759717196,        !- Vertex 2 Ycoordinate
    33,                       !- Vertex 2 Zcoordinate
    56.211964038957376,       !- Vertex 3 Xcoordinate
    4.422939342446625,        !- Vertex 3 Ycoordinate
    33,                       !- Vertex 3 Zcoordinate
    56.211964038957376,       !- Vertex 4 Xcoordinate
    4.422939342446625,        !- Vertex 4 Ycoordinate
    36;                       !- Vertex 4 Zcoordinate

BUILDINGSURFACE:DETAILED,
    Block Poly_87_Residential_3 Storey 11 Wall 0008,    !- Name
    Wall,                     !- Surface Type
    HSCWZ_Residential_2005_ExtWall,    !- Construction Name
    Block Poly_87_Residential_3 Storey 11,    !- Zone Name
    ,                         !- Space Name
    Outdoors,                 !- Outside Boundary Condition
    ,                         !- Outside Boundary Condition Object
    SunExposed,               !- Sun Exposure
    WindExposed,              !- Wind Exposure
    autocalculate,            !- View Factor to Ground
    autocalculate,            !- Number of Vertices
    56.211964038957376,       !- Vertex 1 Xcoordinate
    4.422939342446625,        !- Vertex 1 Ycoordinate
    36,                       !- Vertex 1 Zcoordinate
    56.211964038957376,       !- Vertex 2 Xcoordinate
    4.422939342446625,        !- Vertex 2 Ycoordinate
    33,                       !- Vertex 2 Zcoordinate
    56.239598526794,          !- Vertex 3 Xcoordinate
    13.62460599699989,        !- Vertex 3 Ycoordinate
    33,                       !- Vertex 3 Zcoordinate
    56.239598526794,          !- Vertex 4 Xcoordinate
    13.62460599699989,        !- Vertex 4 Ycoordinate
    36;                       !- Vertex 4 Zcoordinate

BUILDINGSURFACE:DETAILED,
    Block Poly_87_Residential_3 Storey 11 Wall 0009,    !- Name
    Wall,                     !- Surface Type
    HSCWZ_Residential_2005_ExtWall,    !- Construction Name
    Block Poly_87_Residential_3 Storey 11,    !- Zone Name
    ,                         !- Space Name
    Outdoors,                 !- Outside Boundary Condition
    ,                         !- Outside Boundary Condition Object
    SunExposed,               !- Sun Exposure
    WindExposed,              !- Wind Exposure
    autocalculate,            !- View Factor to Ground
    autocalculate,            !- Number of Vertices
    56.239598526794,          !- Vertex 1 Xcoordinate
    13.62460599699989,        !- Vertex 1 Ycoordinate
    36,                       !- Vertex 1 Zcoordinate
    56.239598526794,          !- Vertex 2 Xcoordinate
    13.62460599699989,        !- Vertex 2 Ycoordinate
    33,                       !- Vertex 2 Zcoordinate
    0.1228021571296267,       !- Vertex 3 Xcoordinate
    14.595210153609514,       !- Vertex 3 Ycoordinate
    33,                       !- Vertex 3 Zcoordinate
    0.1228021571296267,       !- Vertex 4 Xcoordinate
    14.595210153609514,       !- Vertex 4 Ycoordinate
    36;                       !- Vertex 4 Zcoordinate

BUILDINGSURFACE:DETAILED,
    Block Poly_87_Residential_3 Storey 11 Wall 0010,    !- Name
    Wall,                     !- Surface Type
    HSCWZ_Residential_2005_ExtWall,    !- Construction Name
    Block Poly_87_Residential_3 Storey 11,    !- Zone Name
    ,                         !- Space Name
    Outdoors,                 !- Outside Boundary Condition
    ,                         !- Outside Boundary Condition Object
    SunExposed,               !- Sun Exposure
    WindExposed,              !- Wind Exposure
    autocalculate,            !- View Factor to Ground
    autocalculate,            !- Number of Vertices
    0.1228021571296267,       !- Vertex 1 Xcoordinate
    14.595210153609514,       !- Vertex 1 Ycoordinate
    36,                       !- Vertex 1 Zcoordinate
    0.1228021571296267,       !- Vertex 2 Xcoordinate
    14.595210153609514,       !- Vertex 2 Ycoordinate
    33,                       !- Vertex 2 Zcoordinate
    0,                        !- Vertex 3 Xcoordinate
    5.394811453763396,        !- Vertex 3 Ycoordinate
    33,                       !- Vertex 3 Zcoordinate
    0,                        !- Vertex 4 Xcoordinate
    5.394811453763396,        !- Vertex 4 Ycoordinate
    36;                       !- Vertex 4 Zcoordinate

BUILDINGSURFACE:DETAILED,
    Block Poly_87_Residential_3 Storey 11 Wall 0011,    !- Name
    Wall,                     !- Surface Type
    HSCWZ_Residential_2005_ExtWall,    !- Construction Name
    Block Poly_87_Residential_3 Storey 11,    !- Zone Name
    ,                         !- Space Name
    Outdoors,                 !- Outside Boundary Condition
    ,                         !- Outside Boundary Condition Object
    SunExposed,               !- Sun Exposure
    WindExposed,              !- Wind Exposure
    autocalculate,            !- View Factor to Ground
    autocalculate,            !- Number of Vertices
    0,                        !- Vertex 1 Xcoordinate
    5.394811453763396,        !- Vertex 1 Ycoordinate
    36,                       !- Vertex 1 Zcoordinate
    0,                        !- Vertex 2 Xcoordinate
    5.394811453763396,        !- Vertex 2 Ycoordinate
    33,                       !- Vertex 2 Zcoordinate
    8.370411821699236,        !- Vertex 3 Xcoordinate
    5.283091011922807,        !- Vertex 3 Ycoordinate
    33,                       !- Vertex 3 Zcoordinate
    8.370411821699236,        !- Vertex 4 Xcoordinate
    5.283091011922807,        !- Vertex 4 Ycoordinate
    36;                       !- Vertex 4 Zcoordinate

BUILDINGSURFACE:DETAILED,
    Block Poly_87_Residential_3 Storey 11 Wall 0012,    !- Name
    Wall,                     !- Surface Type
    HSCWZ_Residential_2005_ExtWall,    !- Construction Name
    Block Poly_87_Residential_3 Storey 11,    !- Zone Name
    ,                         !- Space Name
    Outdoors,                 !- Outside Boundary Condition
    ,                         !- Outside Boundary Condition Object
    SunExposed,               !- Sun Exposure
    WindExposed,              !- Wind Exposure
    autocalculate,            !- View Factor to Ground
    autocalculate,            !- Number of Vertices
    8.370411821699236,        !- Vertex 1 Xcoordinate
    5.283091011922807,        !- Vertex 1 Ycoordinate
    36,                       !- Vertex 1 Zcoordinate
    8.370411821699236,        !- Vertex 2 Xcoordinate
    5.283091011922807,        !- Vertex 2 Ycoordinate
    33,                       !- Vertex 2 Zcoordinate
    8.308274807932321,        !- Vertex 3 Xcoordinate
    0.6274677002802491,       !- Vertex 3 Ycoordinate
    33,                       !- Vertex 3 Zcoordinate
    8.308274807932321,        !- Vertex 4 Xcoordinate
    0.6274677002802491,       !- Vertex 4 Ycoordinate
    36;                       !- Vertex 4 Zcoordinate

BUILDINGSURFACE:DETAILED,
    Block Poly_87_Residential_3 Storey 12 Wall 0001,    !- Name
    Wall,                     !- Surface Type
    HSCWZ_Residential_2005_ExtWall,    !- Construction Name
    Block Poly_87_Residential_3 Storey 12,    !- Zone Name
    ,                         !- Space Name
    Outdoors,                 !- Outside Boundary Condition
    ,                         !- Outside Boundary Condition Object
    SunExposed,               !- Sun Exposure
    WindExposed,              !- Wind Exposure
    autocalculate,            !- View Factor to Ground
    autocalculate,            !- Number of Vertices
    8.308274807932321,        !- Vertex 1 Xcoordinate
    0.6274677002802491,       !- Vertex 1 Ycoordinate
    39,                       !- Vertex 1 Zcoordinate
    8.308274807932321,        !- Vertex 2 Xcoordinate
    0.6274677002802491,       !- Vertex 2 Ycoordinate
    36,                       !- Vertex 2 Zcoordinate
    18.9615307400818,         !- Vertex 3 Xcoordinate
    0.4852878404781222,       !- Vertex 3 Ycoordinate
    36,                       !- Vertex 3 Zcoordinate
    18.9615307400818,         !- Vertex 4 Xcoordinate
    0.4852878404781222,       !- Vertex 4 Ycoordinate
    39;                       !- Vertex 4 Zcoordinate

BUILDINGSURFACE:DETAILED,
    Block Poly_87_Residential_3 Storey 12 Wall 0002,    !- Name
    Wall,                     !- Surface Type
    HSCWZ_Residential_2005_ExtWall,    !- Construction Name
    Block Poly_87_Residential_3 Storey 12,    !- Zone Name
    ,                         !- Space Name
    Outdoors,                 !- Outside Boundary Condition
    ,                         !- Outside Boundary Condition Object
    SunExposed,               !- Sun Exposure
    WindExposed,              !- Wind Exposure
    autocalculate,            !- View Factor to Ground
    autocalculate,            !- Number of Vertices
    18.9615307400818,         !- Vertex 1 Xcoordinate
    0.4852878404781222,       !- Vertex 1 Ycoordinate
    39,                       !- Vertex 1 Zcoordinate
    18.9615307400818,         !- Vertex 2 Xcoordinate
    0.4852878404781222,       !- Vertex 2 Ycoordinate
    36,                       !- Vertex 2 Zcoordinate
    19.1173019867274,         !- Vertex 3 Xcoordinate
    5.028793456964195,        !- Vertex 3 Ycoordinate
    36,                       !- Vertex 3 Zcoordinate
    19.1173019867274,         !- Vertex 4 Xcoordinate
    5.028793456964195,        !- Vertex 4 Ycoordinate
    39;                       !- Vertex 4 Zcoordinate

BUILDINGSURFACE:DETAILED,
    Block Poly_87_Residential_3 Storey 12 Wall 0003,    !- Name
    Wall,                     !- Surface Type
    HSCWZ_Residential_2005_ExtWall,    !- Construction Name
    Block Poly_87_Residential_3 Storey 12,    !- Zone Name
    ,                         !- Space Name
    Outdoors,                 !- Outside Boundary Condition
    ,                         !- Outside Boundary Condition Object
    SunExposed,               !- Sun Exposure
    WindExposed,              !- Wind Exposure
    autocalculate,            !- View Factor to Ground
    autocalculate,            !- Number of Vertices
    19.1173019867274,         !- Vertex 1 Xcoordinate
    5.028793456964195,        !- Vertex 1 Ycoordinate
    39,                       !- Vertex 1 Zcoordinate
    19.1173019867274,         !- Vertex 2 Xcoordinate
    5.028793456964195,        !- Vertex 2 Ycoordinate
    36,                       !- Vertex 2 Zcoordinate
    36.42883482348407,        !- Vertex 3 Xcoordinate
    4.79777431068942,         !- Vertex 3 Ycoordinate
    36,                       !- Vertex 3 Zcoordinate
    36.42883482348407,        !- Vertex 4 Xcoordinate
    4.79777431068942,         !- Vertex 4 Ycoordinate
    39;                       !- Vertex 4 Zcoordinate

BUILDINGSURFACE:DETAILED,
    Block Poly_87_Residential_3 Storey 12 Wall 0004,    !- Name
    Wall,                     !- Surface Type
    HSCWZ_Residential_2005_ExtWall,    !- Construction Name
    Block Poly_87_Residential_3 Storey 12,    !- Zone Name
    ,                         !- Space Name
    Outdoors,                 !- Outside Boundary Condition
    ,                         !- Outside Boundary Condition Object
    SunExposed,               !- Sun Exposure
    WindExposed,              !- Wind Exposure
    autocalculate,            !- View Factor to Ground
    autocalculate,            !- Number of Vertices
    36.42883482348407,        !- Vertex 1 Xcoordinate
    4.79777431068942,         !- Vertex 1 Ycoordinate
    39,                       !- Vertex 1 Zcoordinate
    36.42883482348407,        !- Vertex 2 Xcoordinate
    4.79777431068942,         !- Vertex 2 Ycoordinate
    36,                       !- Vertex 2 Zcoordinate
    36.36671029863646,        !- Vertex 3 Xcoordinate
    0.1421512835659086,       !- Vertex 3 Ycoordinate
    36,                       !- Vertex 3 Zcoordinate
    36.36671029863646,        !- Vertex 4 Xcoordinate
    0.1421512835659086,       !- Vertex 4 Ycoordinate
    39;                       !- Vertex 4 Zcoordinate

BUILDINGSURFACE:DETAILED,
    Block Poly_87_Residential_3 Storey 12 Wall 0005,    !- Name
    Wall,                     !- Surface Type
    HSCWZ_Residential_2005_ExtWall,    !- Construction Name
    Block Poly_87_Residential_3 Storey 12,    !- Zone Name
    ,                         !- Space Name
    Outdoors,                 !- Outside Boundary Condition
    ,                         !- Outside Boundary Condition Object
    SunExposed,               !- Sun Exposure
    WindExposed,              !- Wind Exposure
    autocalculate,            !- View Factor to Ground
    autocalculate,            !- Number of Vertices
    36.36671029863646,        !- Vertex 1 Xcoordinate
    0.1421512835659086,       !- Vertex 1 Ycoordinate
    39,                       !- Vertex 1 Zcoordinate
    36.36671029863646,        !- Vertex 2 Xcoordinate
    0.1421512835659086,       !- Vertex 2 Ycoordinate
    36,                       !- Vertex 2 Zcoordinate
    47.01996569457697,        !- Vertex 3 Xcoordinate
    0,                        !- Vertex 3 Ycoordinate
    36,                       !- Vertex 3 Zcoordinate
    47.01996569457697,        !- Vertex 4 Xcoordinate
    0,                        !- Vertex 4 Ycoordinate
    39;                       !- Vertex 4 Zcoordinate

BUILDINGSURFACE:DETAILED,
    Block Poly_87_Residential_3 Storey 12 Wall 0006,    !- Name
    Wall,                     !- Surface Type
    HSCWZ_Residential_2005_ExtWall,    !- Construction Name
    Block Poly_87_Residential_3 Storey 12,    !- Zone Name
    ,                         !- Space Name
    Outdoors,                 !- Outside Boundary Condition
    ,                         !- Outside Boundary Condition Object
    SunExposed,               !- Sun Exposure
    WindExposed,              !- Wind Exposure
    autocalculate,            !- View Factor to Ground
    autocalculate,            !- Number of Vertices
    47.01996569457697,        !- Vertex 1 Xcoordinate
    0,                        !- Vertex 1 Ycoordinate
    39,                       !- Vertex 1 Zcoordinate
    47.01996569457697,        !- Vertex 2 Xcoordinate
    0,                        !- Vertex 2 Ycoordinate
    36,                       !- Vertex 2 Zcoordinate
    47.17720378719969,        !- Vertex 3 Xcoordinate
    4.654353759717196,        !- Vertex 3 Ycoordinate
    36,                       !- Vertex 3 Zcoordinate
    47.17720378719969,        !- Vertex 4 Xcoordinate
    4.654353759717196,        !- Vertex 4 Ycoordinate
    39;                       !- Vertex 4 Zcoordinate

BUILDINGSURFACE:DETAILED,
    Block Poly_87_Residential_3 Storey 12 Wall 0007,    !- Name
    Wall,                     !- Surface Type
    HSCWZ_Residential_2005_ExtWall,    !- Construction Name
    Block Poly_87_Residential_3 Storey 12,    !- Zone Name
    ,                         !- Space Name
    Outdoors,                 !- Outside Boundary Condition
    ,                         !- Outside Boundary Condition Object
    SunExposed,               !- Sun Exposure
    WindExposed,              !- Wind Exposure
    autocalculate,            !- View Factor to Ground
    autocalculate,            !- Number of Vertices
    47.17720378719969,        !- Vertex 1 Xcoordinate
    4.654353759717196,        !- Vertex 1 Ycoordinate
    39,                       !- Vertex 1 Zcoordinate
    47.17720378719969,        !- Vertex 2 Xcoordinate
    4.654353759717196,        !- Vertex 2 Ycoordinate
    36,                       !- Vertex 2 Zcoordinate
    56.211964038957376,       !- Vertex 3 Xcoordinate
    4.422939342446625,        !- Vertex 3 Ycoordinate
    36,                       !- Vertex 3 Zcoordinate
    56.211964038957376,       !- Vertex 4 Xcoordinate
    4.422939342446625,        !- Vertex 4 Ycoordinate
    39;                       !- Vertex 4 Zcoordinate

BUILDINGSURFACE:DETAILED,
    Block Poly_87_Residential_3 Storey 12 Wall 0008,    !- Name
    Wall,                     !- Surface Type
    HSCWZ_Residential_2005_ExtWall,    !- Construction Name
    Block Poly_87_Residential_3 Storey 12,    !- Zone Name
    ,                         !- Space Name
    Outdoors,                 !- Outside Boundary Condition
    ,                         !- Outside Boundary Condition Object
    SunExposed,               !- Sun Exposure
    WindExposed,              !- Wind Exposure
    autocalculate,            !- View Factor to Ground
    autocalculate,            !- Number of Vertices
    56.211964038957376,       !- Vertex 1 Xcoordinate
    4.422939342446625,        !- Vertex 1 Ycoordinate
    39,                       !- Vertex 1 Zcoordinate
    56.211964038957376,       !- Vertex 2 Xcoordinate
    4.422939342446625,        !- Vertex 2 Ycoordinate
    36,                       !- Vertex 2 Zcoordinate
    56.239598526794,          !- Vertex 3 Xcoordinate
    13.62460599699989,        !- Vertex 3 Ycoordinate
    36,                       !- Vertex 3 Zcoordinate
    56.239598526794,          !- Vertex 4 Xcoordinate
    13.62460599699989,        !- Vertex 4 Ycoordinate
    39;                       !- Vertex 4 Zcoordinate

BUILDINGSURFACE:DETAILED,
    Block Poly_87_Residential_3 Storey 12 Wall 0009,    !- Name
    Wall,                     !- Surface Type
    HSCWZ_Residential_2005_ExtWall,    !- Construction Name
    Block Poly_87_Residential_3 Storey 12,    !- Zone Name
    ,                         !- Space Name
    Outdoors,                 !- Outside Boundary Condition
    ,                         !- Outside Boundary Condition Object
    SunExposed,               !- Sun Exposure
    WindExposed,              !- Wind Exposure
    autocalculate,            !- View Factor to Ground
    autocalculate,            !- Number of Vertices
    56.239598526794,          !- Vertex 1 Xcoordinate
    13.62460599699989,        !- Vertex 1 Ycoordinate
    39,                       !- Vertex 1 Zcoordinate
    56.239598526794,          !- Vertex 2 Xcoordinate
    13.62460599699989,        !- Vertex 2 Ycoordinate
    36,                       !- Vertex 2 Zcoordinate
    0.1228021571296267,       !- Vertex 3 Xcoordinate
    14.595210153609514,       !- Vertex 3 Ycoordinate
    36,                       !- Vertex 3 Zcoordinate
    0.1228021571296267,       !- Vertex 4 Xcoordinate
    14.595210153609514,       !- Vertex 4 Ycoordinate
    39;                       !- Vertex 4 Zcoordinate

BUILDINGSURFACE:DETAILED,
    Block Poly_87_Residential_3 Storey 12 Wall 0010,    !- Name
    Wall,                     !- Surface Type
    HSCWZ_Residential_2005_ExtWall,    !- Construction Name
    Block Poly_87_Residential_3 Storey 12,    !- Zone Name
    ,                         !- Space Name
    Outdoors,                 !- Outside Boundary Condition
    ,                         !- Outside Boundary Condition Object
    SunExposed,               !- Sun Exposure
    WindExposed,              !- Wind Exposure
    autocalculate,            !- View Factor to Ground
    autocalculate,            !- Number of Vertices
    0.1228021571296267,       !- Vertex 1 Xcoordinate
    14.595210153609514,       !- Vertex 1 Ycoordinate
    39,                       !- Vertex 1 Zcoordinate
    0.1228021571296267,       !- Vertex 2 Xcoordinate
    14.595210153609514,       !- Vertex 2 Ycoordinate
    36,                       !- Vertex 2 Zcoordinate
    0,                        !- Vertex 3 Xcoordinate
    5.394811453763396,        !- Vertex 3 Ycoordinate
    36,                       !- Vertex 3 Zcoordinate
    0,                        !- Vertex 4 Xcoordinate
    5.394811453763396,        !- Vertex 4 Ycoordinate
    39;                       !- Vertex 4 Zcoordinate

BUILDINGSURFACE:DETAILED,
    Block Poly_87_Residential_3 Storey 12 Wall 0011,    !- Name
    Wall,                     !- Surface Type
    HSCWZ_Residential_2005_ExtWall,    !- Construction Name
    Block Poly_87_Residential_3 Storey 12,    !- Zone Name
    ,                         !- Space Name
    Outdoors,                 !- Outside Boundary Condition
    ,                         !- Outside Boundary Condition Object
    SunExposed,               !- Sun Exposure
    WindExposed,              !- Wind Exposure
    autocalculate,            !- View Factor to Ground
    autocalculate,            !- Number of Vertices
    0,                        !- Vertex 1 Xcoordinate
    5.394811453763396,        !- Vertex 1 Ycoordinate
    39,                       !- Vertex 1 Zcoordinate
    0,                        !- Vertex 2 Xcoordinate
    5.394811453763396,        !- Vertex 2 Ycoordinate
    36,                       !- Vertex 2 Zcoordinate
    8.370411821699236,        !- Vertex 3 Xcoordinate
    5.283091011922807,        !- Vertex 3 Ycoordinate
    36,                       !- Vertex 3 Zcoordinate
    8.370411821699236,        !- Vertex 4 Xcoordinate
    5.283091011922807,        !- Vertex 4 Ycoordinate
    39;                       !- Vertex 4 Zcoordinate

BUILDINGSURFACE:DETAILED,
    Block Poly_87_Residential_3 Storey 12 Wall 0012,    !- Name
    Wall,                     !- Surface Type
    HSCWZ_Residential_2005_ExtWall,    !- Construction Name
    Block Poly_87_Residential_3 Storey 12,    !- Zone Name
    ,                         !- Space Name
    Outdoors,                 !- Outside Boundary Condition
    ,                         !- Outside Boundary Condition Object
    SunExposed,               !- Sun Exposure
    WindExposed,              !- Wind Exposure
    autocalculate,            !- View Factor to Ground
    autocalculate,            !- Number of Vertices
    8.370411821699236,        !- Vertex 1 Xcoordinate
    5.283091011922807,        !- Vertex 1 Ycoordinate
    39,                       !- Vertex 1 Zcoordinate
    8.370411821699236,        !- Vertex 2 Xcoordinate
    5.283091011922807,        !- Vertex 2 Ycoordinate
    36,                       !- Vertex 2 Zcoordinate
    8.308274807932321,        !- Vertex 3 Xcoordinate
    0.6274677002802491,       !- Vertex 3 Ycoordinate
    36,                       !- Vertex 3 Zcoordinate
    8.308274807932321,        !- Vertex 4 Xcoordinate
    0.6274677002802491,       !- Vertex 4 Ycoordinate
    39;                       !- Vertex 4 Zcoordinate

BUILDINGSURFACE:DETAILED,
    Block Poly_87_Residential_3 Storey 13 Wall 0001,    !- Name
    Wall,                     !- Surface Type
    HSCWZ_Residential_2005_ExtWall,    !- Construction Name
    Block Poly_87_Residential_3 Storey 13,    !- Zone Name
    ,                         !- Space Name
    Outdoors,                 !- Outside Boundary Condition
    ,                         !- Outside Boundary Condition Object
    SunExposed,               !- Sun Exposure
    WindExposed,              !- Wind Exposure
    autocalculate,            !- View Factor to Ground
    autocalculate,            !- Number of Vertices
    8.308274807932321,        !- Vertex 1 Xcoordinate
    0.6274677002802491,       !- Vertex 1 Ycoordinate
    42,                       !- Vertex 1 Zcoordinate
    8.308274807932321,        !- Vertex 2 Xcoordinate
    0.6274677002802491,       !- Vertex 2 Ycoordinate
    39,                       !- Vertex 2 Zcoordinate
    18.9615307400818,         !- Vertex 3 Xcoordinate
    0.4852878404781222,       !- Vertex 3 Ycoordinate
    39,                       !- Vertex 3 Zcoordinate
    18.9615307400818,         !- Vertex 4 Xcoordinate
    0.4852878404781222,       !- Vertex 4 Ycoordinate
    42;                       !- Vertex 4 Zcoordinate

BUILDINGSURFACE:DETAILED,
    Block Poly_87_Residential_3 Storey 13 Wall 0002,    !- Name
    Wall,                     !- Surface Type
    HSCWZ_Residential_2005_ExtWall,    !- Construction Name
    Block Poly_87_Residential_3 Storey 13,    !- Zone Name
    ,                         !- Space Name
    Outdoors,                 !- Outside Boundary Condition
    ,                         !- Outside Boundary Condition Object
    SunExposed,               !- Sun Exposure
    WindExposed,              !- Wind Exposure
    autocalculate,            !- View Factor to Ground
    autocalculate,            !- Number of Vertices
    18.9615307400818,         !- Vertex 1 Xcoordinate
    0.4852878404781222,       !- Vertex 1 Ycoordinate
    42,                       !- Vertex 1 Zcoordinate
    18.9615307400818,         !- Vertex 2 Xcoordinate
    0.4852878404781222,       !- Vertex 2 Ycoordinate
    39,                       !- Vertex 2 Zcoordinate
    19.1173019867274,         !- Vertex 3 Xcoordinate
    5.028793456964195,        !- Vertex 3 Ycoordinate
    39,                       !- Vertex 3 Zcoordinate
    19.1173019867274,         !- Vertex 4 Xcoordinate
    5.028793456964195,        !- Vertex 4 Ycoordinate
    42;                       !- Vertex 4 Zcoordinate

BUILDINGSURFACE:DETAILED,
    Block Poly_87_Residential_3 Storey 13 Wall 0003,    !- Name
    Wall,                     !- Surface Type
    HSCWZ_Residential_2005_ExtWall,    !- Construction Name
    Block Poly_87_Residential_3 Storey 13,    !- Zone Name
    ,                         !- Space Name
    Outdoors,                 !- Outside Boundary Condition
    ,                         !- Outside Boundary Condition Object
    SunExposed,               !- Sun Exposure
    WindExposed,              !- Wind Exposure
    autocalculate,            !- View Factor to Ground
    autocalculate,            !- Number of Vertices
    19.1173019867274,         !- Vertex 1 Xcoordinate
    5.028793456964195,        !- Vertex 1 Ycoordinate
    42,                       !- Vertex 1 Zcoordinate
    19.1173019867274,         !- Vertex 2 Xcoordinate
    5.028793456964195,        !- Vertex 2 Ycoordinate
    39,                       !- Vertex 2 Zcoordinate
    36.42883482348407,        !- Vertex 3 Xcoordinate
    4.79777431068942,         !- Vertex 3 Ycoordinate
    39,                       !- Vertex 3 Zcoordinate
    36.42883482348407,        !- Vertex 4 Xcoordinate
    4.79777431068942,         !- Vertex 4 Ycoordinate
    42;                       !- Vertex 4 Zcoordinate

BUILDINGSURFACE:DETAILED,
    Block Poly_87_Residential_3 Storey 13 Wall 0004,    !- Name
    Wall,                     !- Surface Type
    HSCWZ_Residential_2005_ExtWall,    !- Construction Name
    Block Poly_87_Residential_3 Storey 13,    !- Zone Name
    ,                         !- Space Name
    Outdoors,                 !- Outside Boundary Condition
    ,                         !- Outside Boundary Condition Object
    SunExposed,               !- Sun Exposure
    WindExposed,              !- Wind Exposure
    autocalculate,            !- View Factor to Ground
    autocalculate,            !- Number of Vertices
    36.42883482348407,        !- Vertex 1 Xcoordinate
    4.79777431068942,         !- Vertex 1 Ycoordinate
    42,                       !- Vertex 1 Zcoordinate
    36.42883482348407,        !- Vertex 2 Xcoordinate
    4.79777431068942,         !- Vertex 2 Ycoordinate
    39,                       !- Vertex 2 Zcoordinate
    36.36671029863646,        !- Vertex 3 Xcoordinate
    0.1421512835659086,       !- Vertex 3 Ycoordinate
    39,                       !- Vertex 3 Zcoordinate
    36.36671029863646,        !- Vertex 4 Xcoordinate
    0.1421512835659086,       !- Vertex 4 Ycoordinate
    42;                       !- Vertex 4 Zcoordinate

BUILDINGSURFACE:DETAILED,
    Block Poly_87_Residential_3 Storey 13 Wall 0005,    !- Name
    Wall,                     !- Surface Type
    HSCWZ_Residential_2005_ExtWall,    !- Construction Name
    Block Poly_87_Residential_3 Storey 13,    !- Zone Name
    ,                         !- Space Name
    Outdoors,                 !- Outside Boundary Condition
    ,                         !- Outside Boundary Condition Object
    SunExposed,               !- Sun Exposure
    WindExposed,              !- Wind Exposure
    autocalculate,            !- View Factor to Ground
    autocalculate,            !- Number of Vertices
    36.36671029863646,        !- Vertex 1 Xcoordinate
    0.1421512835659086,       !- Vertex 1 Ycoordinate
    42,                       !- Vertex 1 Zcoordinate
    36.36671029863646,        !- Vertex 2 Xcoordinate
    0.1421512835659086,       !- Vertex 2 Ycoordinate
    39,                       !- Vertex 2 Zcoordinate
    47.01996569457697,        !- Vertex 3 Xcoordinate
    0,                        !- Vertex 3 Ycoordinate
    39,                       !- Vertex 3 Zcoordinate
    47.01996569457697,        !- Vertex 4 Xcoordinate
    0,                        !- Vertex 4 Ycoordinate
    42;                       !- Vertex 4 Zcoordinate

BUILDINGSURFACE:DETAILED,
    Block Poly_87_Residential_3 Storey 13 Wall 0006,    !- Name
    Wall,                     !- Surface Type
    HSCWZ_Residential_2005_ExtWall,    !- Construction Name
    Block Poly_87_Residential_3 Storey 13,    !- Zone Name
    ,                         !- Space Name
    Outdoors,                 !- Outside Boundary Condition
    ,                         !- Outside Boundary Condition Object
    SunExposed,               !- Sun Exposure
    WindExposed,              !- Wind Exposure
    autocalculate,            !- View Factor to Ground
    autocalculate,            !- Number of Vertices
    47.01996569457697,        !- Vertex 1 Xcoordinate
    0,                        !- Vertex 1 Ycoordinate
    42,                       !- Vertex 1 Zcoordinate
    47.01996569457697,        !- Vertex 2 Xcoordinate
    0,                        !- Vertex 2 Ycoordinate
    39,                       !- Vertex 2 Zcoordinate
    47.17720378719969,        !- Vertex 3 Xcoordinate
    4.654353759717196,        !- Vertex 3 Ycoordinate
    39,                       !- Vertex 3 Zcoordinate
    47.17720378719969,        !- Vertex 4 Xcoordinate
    4.654353759717196,        !- Vertex 4 Ycoordinate
    42;                       !- Vertex 4 Zcoordinate

BUILDINGSURFACE:DETAILED,
    Block Poly_87_Residential_3 Storey 13 Wall 0007,    !- Name
    Wall,                     !- Surface Type
    HSCWZ_Residential_2005_ExtWall,    !- Construction Name
    Block Poly_87_Residential_3 Storey 13,    !- Zone Name
    ,                         !- Space Name
    Outdoors,                 !- Outside Boundary Condition
    ,                         !- Outside Boundary Condition Object
    SunExposed,               !- Sun Exposure
    WindExposed,              !- Wind Exposure
    autocalculate,            !- View Factor to Ground
    autocalculate,            !- Number of Vertices
    47.17720378719969,        !- Vertex 1 Xcoordinate
    4.654353759717196,        !- Vertex 1 Ycoordinate
    42,                       !- Vertex 1 Zcoordinate
    47.17720378719969,        !- Vertex 2 Xcoordinate
    4.654353759717196,        !- Vertex 2 Ycoordinate
    39,                       !- Vertex 2 Zcoordinate
    56.211964038957376,       !- Vertex 3 Xcoordinate
    4.422939342446625,        !- Vertex 3 Ycoordinate
    39,                       !- Vertex 3 Zcoordinate
    56.211964038957376,       !- Vertex 4 Xcoordinate
    4.422939342446625,        !- Vertex 4 Ycoordinate
    42;                       !- Vertex 4 Zcoordinate

BUILDINGSURFACE:DETAILED,
    Block Poly_87_Residential_3 Storey 13 Wall 0008,    !- Name
    Wall,                     !- Surface Type
    HSCWZ_Residential_2005_ExtWall,    !- Construction Name
    Block Poly_87_Residential_3 Storey 13,    !- Zone Name
    ,                         !- Space Name
    Outdoors,                 !- Outside Boundary Condition
    ,                         !- Outside Boundary Condition Object
    SunExposed,               !- Sun Exposure
    WindExposed,              !- Wind Exposure
    autocalculate,            !- View Factor to Ground
    autocalculate,            !- Number of Vertices
    56.211964038957376,       !- Vertex 1 Xcoordinate
    4.422939342446625,        !- Vertex 1 Ycoordinate
    42,                       !- Vertex 1 Zcoordinate
    56.211964038957376,       !- Vertex 2 Xcoordinate
    4.422939342446625,        !- Vertex 2 Ycoordinate
    39,                       !- Vertex 2 Zcoordinate
    56.239598526794,          !- Vertex 3 Xcoordinate
    13.62460599699989,        !- Vertex 3 Ycoordinate
    39,                       !- Vertex 3 Zcoordinate
    56.239598526794,          !- Vertex 4 Xcoordinate
    13.62460599699989,        !- Vertex 4 Ycoordinate
    42;                       !- Vertex 4 Zcoordinate

BUILDINGSURFACE:DETAILED,
    Block Poly_87_Residential_3 Storey 13 Wall 0009,    !- Name
    Wall,                     !- Surface Type
    HSCWZ_Residential_2005_ExtWall,    !- Construction Name
    Block Poly_87_Residential_3 Storey 13,    !- Zone Name
    ,                         !- Space Name
    Outdoors,                 !- Outside Boundary Condition
    ,                         !- Outside Boundary Condition Object
    SunExposed,               !- Sun Exposure
    WindExposed,              !- Wind Exposure
    autocalculate,            !- View Factor to Ground
    autocalculate,            !- Number of Vertices
    56.239598526794,          !- Vertex 1 Xcoordinate
    13.62460599699989,        !- Vertex 1 Ycoordinate
    42,                       !- Vertex 1 Zcoordinate
    56.239598526794,          !- Vertex 2 Xcoordinate
    13.62460599699989,        !- Vertex 2 Ycoordinate
    39,                       !- Vertex 2 Zcoordinate
    0.1228021571296267,       !- Vertex 3 Xcoordinate
    14.595210153609514,       !- Vertex 3 Ycoordinate
    39,                       !- Vertex 3 Zcoordinate
    0.1228021571296267,       !- Vertex 4 Xcoordinate
    14.595210153609514,       !- Vertex 4 Ycoordinate
    42;                       !- Vertex 4 Zcoordinate

BUILDINGSURFACE:DETAILED,
    Block Poly_87_Residential_3 Storey 13 Wall 0010,    !- Name
    Wall,                     !- Surface Type
    HSCWZ_Residential_2005_ExtWall,    !- Construction Name
    Block Poly_87_Residential_3 Storey 13,    !- Zone Name
    ,                         !- Space Name
    Outdoors,                 !- Outside Boundary Condition
    ,                         !- Outside Boundary Condition Object
    SunExposed,               !- Sun Exposure
    WindExposed,              !- Wind Exposure
    autocalculate,            !- View Factor to Ground
    autocalculate,            !- Number of Vertices
    0.1228021571296267,       !- Vertex 1 Xcoordinate
    14.595210153609514,       !- Vertex 1 Ycoordinate
    42,                       !- Vertex 1 Zcoordinate
    0.1228021571296267,       !- Vertex 2 Xcoordinate
    14.595210153609514,       !- Vertex 2 Ycoordinate
    39,                       !- Vertex 2 Zcoordinate
    0,                        !- Vertex 3 Xcoordinate
    5.394811453763396,        !- Vertex 3 Ycoordinate
    39,                       !- Vertex 3 Zcoordinate
    0,                        !- Vertex 4 Xcoordinate
    5.394811453763396,        !- Vertex 4 Ycoordinate
    42;                       !- Vertex 4 Zcoordinate

BUILDINGSURFACE:DETAILED,
    Block Poly_87_Residential_3 Storey 13 Wall 0011,    !- Name
    Wall,                     !- Surface Type
    HSCWZ_Residential_2005_ExtWall,    !- Construction Name
    Block Poly_87_Residential_3 Storey 13,    !- Zone Name
    ,                         !- Space Name
    Outdoors,                 !- Outside Boundary Condition
    ,                         !- Outside Boundary Condition Object
    SunExposed,               !- Sun Exposure
    WindExposed,              !- Wind Exposure
    autocalculate,            !- View Factor to Ground
    autocalculate,            !- Number of Vertices
    0,                        !- Vertex 1 Xcoordinate
    5.394811453763396,        !- Vertex 1 Ycoordinate
    42,                       !- Vertex 1 Zcoordinate
    0,                        !- Vertex 2 Xcoordinate
    5.394811453763396,        !- Vertex 2 Ycoordinate
    39,                       !- Vertex 2 Zcoordinate
    8.370411821699236,        !- Vertex 3 Xcoordinate
    5.283091011922807,        !- Vertex 3 Ycoordinate
    39,                       !- Vertex 3 Zcoordinate
    8.370411821699236,        !- Vertex 4 Xcoordinate
    5.283091011922807,        !- Vertex 4 Ycoordinate
    42;                       !- Vertex 4 Zcoordinate

BUILDINGSURFACE:DETAILED,
    Block Poly_87_Residential_3 Storey 13 Wall 0012,    !- Name
    Wall,                     !- Surface Type
    HSCWZ_Residential_2005_ExtWall,    !- Construction Name
    Block Poly_87_Residential_3 Storey 13,    !- Zone Name
    ,                         !- Space Name
    Outdoors,                 !- Outside Boundary Condition
    ,                         !- Outside Boundary Condition Object
    SunExposed,               !- Sun Exposure
    WindExposed,              !- Wind Exposure
    autocalculate,            !- View Factor to Ground
    autocalculate,            !- Number of Vertices
    8.370411821699236,        !- Vertex 1 Xcoordinate
    5.283091011922807,        !- Vertex 1 Ycoordinate
    42,                       !- Vertex 1 Zcoordinate
    8.370411821699236,        !- Vertex 2 Xcoordinate
    5.283091011922807,        !- Vertex 2 Ycoordinate
    39,                       !- Vertex 2 Zcoordinate
    8.308274807932321,        !- Vertex 3 Xcoordinate
    0.6274677002802491,       !- Vertex 3 Ycoordinate
    39,                       !- Vertex 3 Zcoordinate
    8.308274807932321,        !- Vertex 4 Xcoordinate
    0.6274677002802491,       !- Vertex 4 Ycoordinate
    42;                       !- Vertex 4 Zcoordinate

BUILDINGSURFACE:DETAILED,
    Block Poly_87_Residential_3 Storey 14 Wall 0001,    !- Name
    Wall,                     !- Surface Type
    HSCWZ_Residential_2005_ExtWall,    !- Construction Name
    Block Poly_87_Residential_3 Storey 14,    !- Zone Name
    ,                         !- Space Name
    Outdoors,                 !- Outside Boundary Condition
    ,                         !- Outside Boundary Condition Object
    SunExposed,               !- Sun Exposure
    WindExposed,              !- Wind Exposure
    autocalculate,            !- View Factor to Ground
    autocalculate,            !- Number of Vertices
    8.308274807932321,        !- Vertex 1 Xcoordinate
    0.6274677002802491,       !- Vertex 1 Ycoordinate
    45,                       !- Vertex 1 Zcoordinate
    8.308274807932321,        !- Vertex 2 Xcoordinate
    0.6274677002802491,       !- Vertex 2 Ycoordinate
    42,                       !- Vertex 2 Zcoordinate
    18.9615307400818,         !- Vertex 3 Xcoordinate
    0.4852878404781222,       !- Vertex 3 Ycoordinate
    42,                       !- Vertex 3 Zcoordinate
    18.9615307400818,         !- Vertex 4 Xcoordinate
    0.4852878404781222,       !- Vertex 4 Ycoordinate
    45;                       !- Vertex 4 Zcoordinate

BUILDINGSURFACE:DETAILED,
    Block Poly_87_Residential_3 Storey 14 Wall 0002,    !- Name
    Wall,                     !- Surface Type
    HSCWZ_Residential_2005_ExtWall,    !- Construction Name
    Block Poly_87_Residential_3 Storey 14,    !- Zone Name
    ,                         !- Space Name
    Outdoors,                 !- Outside Boundary Condition
    ,                         !- Outside Boundary Condition Object
    SunExposed,               !- Sun Exposure
    WindExposed,              !- Wind Exposure
    autocalculate,            !- View Factor to Ground
    autocalculate,            !- Number of Vertices
    18.9615307400818,         !- Vertex 1 Xcoordinate
    0.4852878404781222,       !- Vertex 1 Ycoordinate
    45,                       !- Vertex 1 Zcoordinate
    18.9615307400818,         !- Vertex 2 Xcoordinate
    0.4852878404781222,       !- Vertex 2 Ycoordinate
    42,                       !- Vertex 2 Zcoordinate
    19.1173019867274,         !- Vertex 3 Xcoordinate
    5.028793456964195,        !- Vertex 3 Ycoordinate
    42,                       !- Vertex 3 Zcoordinate
    19.1173019867274,         !- Vertex 4 Xcoordinate
    5.028793456964195,        !- Vertex 4 Ycoordinate
    45;                       !- Vertex 4 Zcoordinate

BUILDINGSURFACE:DETAILED,
    Block Poly_87_Residential_3 Storey 14 Wall 0003,    !- Name
    Wall,                     !- Surface Type
    HSCWZ_Residential_2005_ExtWall,    !- Construction Name
    Block Poly_87_Residential_3 Storey 14,    !- Zone Name
    ,                         !- Space Name
    Outdoors,                 !- Outside Boundary Condition
    ,                         !- Outside Boundary Condition Object
    SunExposed,               !- Sun Exposure
    WindExposed,              !- Wind Exposure
    autocalculate,            !- View Factor to Ground
    autocalculate,            !- Number of Vertices
    19.1173019867274,         !- Vertex 1 Xcoordinate
    5.028793456964195,        !- Vertex 1 Ycoordinate
    45,                       !- Vertex 1 Zcoordinate
    19.1173019867274,         !- Vertex 2 Xcoordinate
    5.028793456964195,        !- Vertex 2 Ycoordinate
    42,                       !- Vertex 2 Zcoordinate
    36.42883482348407,        !- Vertex 3 Xcoordinate
    4.79777431068942,         !- Vertex 3 Ycoordinate
    42,                       !- Vertex 3 Zcoordinate
    36.42883482348407,        !- Vertex 4 Xcoordinate
    4.79777431068942,         !- Vertex 4 Ycoordinate
    45;                       !- Vertex 4 Zcoordinate

BUILDINGSURFACE:DETAILED,
    Block Poly_87_Residential_3 Storey 14 Wall 0004,    !- Name
    Wall,                     !- Surface Type
    HSCWZ_Residential_2005_ExtWall,    !- Construction Name
    Block Poly_87_Residential_3 Storey 14,    !- Zone Name
    ,                         !- Space Name
    Outdoors,                 !- Outside Boundary Condition
    ,                         !- Outside Boundary Condition Object
    SunExposed,               !- Sun Exposure
    WindExposed,              !- Wind Exposure
    autocalculate,            !- View Factor to Ground
    autocalculate,            !- Number of Vertices
    36.42883482348407,        !- Vertex 1 Xcoordinate
    4.79777431068942,         !- Vertex 1 Ycoordinate
    45,                       !- Vertex 1 Zcoordinate
    36.42883482348407,        !- Vertex 2 Xcoordinate
    4.79777431068942,         !- Vertex 2 Ycoordinate
    42,                       !- Vertex 2 Zcoordinate
    36.36671029863646,        !- Vertex 3 Xcoordinate
    0.1421512835659086,       !- Vertex 3 Ycoordinate
    42,                       !- Vertex 3 Zcoordinate
    36.36671029863646,        !- Vertex 4 Xcoordinate
    0.1421512835659086,       !- Vertex 4 Ycoordinate
    45;                       !- Vertex 4 Zcoordinate

BUILDINGSURFACE:DETAILED,
    Block Poly_87_Residential_3 Storey 14 Wall 0005,    !- Name
    Wall,                     !- Surface Type
    HSCWZ_Residential_2005_ExtWall,    !- Construction Name
    Block Poly_87_Residential_3 Storey 14,    !- Zone Name
    ,                         !- Space Name
    Outdoors,                 !- Outside Boundary Condition
    ,                         !- Outside Boundary Condition Object
    SunExposed,               !- Sun Exposure
    WindExposed,              !- Wind Exposure
    autocalculate,            !- View Factor to Ground
    autocalculate,            !- Number of Vertices
    36.36671029863646,        !- Vertex 1 Xcoordinate
    0.1421512835659086,       !- Vertex 1 Ycoordinate
    45,                       !- Vertex 1 Zcoordinate
    36.36671029863646,        !- Vertex 2 Xcoordinate
    0.1421512835659086,       !- Vertex 2 Ycoordinate
    42,                       !- Vertex 2 Zcoordinate
    47.01996569457697,        !- Vertex 3 Xcoordinate
    0,                        !- Vertex 3 Ycoordinate
    42,                       !- Vertex 3 Zcoordinate
    47.01996569457697,        !- Vertex 4 Xcoordinate
    0,                        !- Vertex 4 Ycoordinate
    45;                       !- Vertex 4 Zcoordinate

BUILDINGSURFACE:DETAILED,
    Block Poly_87_Residential_3 Storey 14 Wall 0006,    !- Name
    Wall,                     !- Surface Type
    HSCWZ_Residential_2005_ExtWall,    !- Construction Name
    Block Poly_87_Residential_3 Storey 14,    !- Zone Name
    ,                         !- Space Name
    Outdoors,                 !- Outside Boundary Condition
    ,                         !- Outside Boundary Condition Object
    SunExposed,               !- Sun Exposure
    WindExposed,              !- Wind Exposure
    autocalculate,            !- View Factor to Ground
    autocalculate,            !- Number of Vertices
    47.01996569457697,        !- Vertex 1 Xcoordinate
    0,                        !- Vertex 1 Ycoordinate
    45,                       !- Vertex 1 Zcoordinate
    47.01996569457697,        !- Vertex 2 Xcoordinate
    0,                        !- Vertex 2 Ycoordinate
    42,                       !- Vertex 2 Zcoordinate
    47.17720378719969,        !- Vertex 3 Xcoordinate
    4.654353759717196,        !- Vertex 3 Ycoordinate
    42,                       !- Vertex 3 Zcoordinate
    47.17720378719969,        !- Vertex 4 Xcoordinate
    4.654353759717196,        !- Vertex 4 Ycoordinate
    45;                       !- Vertex 4 Zcoordinate

BUILDINGSURFACE:DETAILED,
    Block Poly_87_Residential_3 Storey 14 Wall 0007,    !- Name
    Wall,                     !- Surface Type
    HSCWZ_Residential_2005_ExtWall,    !- Construction Name
    Block Poly_87_Residential_3 Storey 14,    !- Zone Name
    ,                         !- Space Name
    Outdoors,                 !- Outside Boundary Condition
    ,                         !- Outside Boundary Condition Object
    SunExposed,               !- Sun Exposure
    WindExposed,              !- Wind Exposure
    autocalculate,            !- View Factor to Ground
    autocalculate,            !- Number of Vertices
    47.17720378719969,        !- Vertex 1 Xcoordinate
    4.654353759717196,        !- Vertex 1 Ycoordinate
    45,                       !- Vertex 1 Zcoordinate
    47.17720378719969,        !- Vertex 2 Xcoordinate
    4.654353759717196,        !- Vertex 2 Ycoordinate
    42,                       !- Vertex 2 Zcoordinate
    56.211964038957376,       !- Vertex 3 Xcoordinate
    4.422939342446625,        !- Vertex 3 Ycoordinate
    42,                       !- Vertex 3 Zcoordinate
    56.211964038957376,       !- Vertex 4 Xcoordinate
    4.422939342446625,        !- Vertex 4 Ycoordinate
    45;                       !- Vertex 4 Zcoordinate

BUILDINGSURFACE:DETAILED,
    Block Poly_87_Residential_3 Storey 14 Wall 0008,    !- Name
    Wall,                     !- Surface Type
    HSCWZ_Residential_2005_ExtWall,    !- Construction Name
    Block Poly_87_Residential_3 Storey 14,    !- Zone Name
    ,                         !- Space Name
    Outdoors,                 !- Outside Boundary Condition
    ,                         !- Outside Boundary Condition Object
    SunExposed,               !- Sun Exposure
    WindExposed,              !- Wind Exposure
    autocalculate,            !- View Factor to Ground
    autocalculate,            !- Number of Vertices
    56.211964038957376,       !- Vertex 1 Xcoordinate
    4.422939342446625,        !- Vertex 1 Ycoordinate
    45,                       !- Vertex 1 Zcoordinate
    56.211964038957376,       !- Vertex 2 Xcoordinate
    4.422939342446625,        !- Vertex 2 Ycoordinate
    42,                       !- Vertex 2 Zcoordinate
    56.239598526794,          !- Vertex 3 Xcoordinate
    13.62460599699989,        !- Vertex 3 Ycoordinate
    42,                       !- Vertex 3 Zcoordinate
    56.239598526794,          !- Vertex 4 Xcoordinate
    13.62460599699989,        !- Vertex 4 Ycoordinate
    45;                       !- Vertex 4 Zcoordinate

BUILDINGSURFACE:DETAILED,
    Block Poly_87_Residential_3 Storey 14 Wall 0009,    !- Name
    Wall,                     !- Surface Type
    HSCWZ_Residential_2005_ExtWall,    !- Construction Name
    Block Poly_87_Residential_3 Storey 14,    !- Zone Name
    ,                         !- Space Name
    Outdoors,                 !- Outside Boundary Condition
    ,                         !- Outside Boundary Condition Object
    SunExposed,               !- Sun Exposure
    WindExposed,              !- Wind Exposure
    autocalculate,            !- View Factor to Ground
    autocalculate,            !- Number of Vertices
    56.239598526794,          !- Vertex 1 Xcoordinate
    13.62460599699989,        !- Vertex 1 Ycoordinate
    45,                       !- Vertex 1 Zcoordinate
    56.239598526794,          !- Vertex 2 Xcoordinate
    13.62460599699989,        !- Vertex 2 Ycoordinate
    42,                       !- Vertex 2 Zcoordinate
    0.1228021571296267,       !- Vertex 3 Xcoordinate
    14.595210153609514,       !- Vertex 3 Ycoordinate
    42,                       !- Vertex 3 Zcoordinate
    0.1228021571296267,       !- Vertex 4 Xcoordinate
    14.595210153609514,       !- Vertex 4 Ycoordinate
    45;                       !- Vertex 4 Zcoordinate

BUILDINGSURFACE:DETAILED,
    Block Poly_87_Residential_3 Storey 14 Wall 0010,    !- Name
    Wall,                     !- Surface Type
    HSCWZ_Residential_2005_ExtWall,    !- Construction Name
    Block Poly_87_Residential_3 Storey 14,    !- Zone Name
    ,                         !- Space Name
    Outdoors,                 !- Outside Boundary Condition
    ,                         !- Outside Boundary Condition Object
    SunExposed,               !- Sun Exposure
    WindExposed,              !- Wind Exposure
    autocalculate,            !- View Factor to Ground
    autocalculate,            !- Number of Vertices
    0.1228021571296267,       !- Vertex 1 Xcoordinate
    14.595210153609514,       !- Vertex 1 Ycoordinate
    45,                       !- Vertex 1 Zcoordinate
    0.1228021571296267,       !- Vertex 2 Xcoordinate
    14.595210153609514,       !- Vertex 2 Ycoordinate
    42,                       !- Vertex 2 Zcoordinate
    0,                        !- Vertex 3 Xcoordinate
    5.394811453763396,        !- Vertex 3 Ycoordinate
    42,                       !- Vertex 3 Zcoordinate
    0,                        !- Vertex 4 Xcoordinate
    5.394811453763396,        !- Vertex 4 Ycoordinate
    45;                       !- Vertex 4 Zcoordinate

BUILDINGSURFACE:DETAILED,
    Block Poly_87_Residential_3 Storey 14 Wall 0011,    !- Name
    Wall,                     !- Surface Type
    HSCWZ_Residential_2005_ExtWall,    !- Construction Name
    Block Poly_87_Residential_3 Storey 14,    !- Zone Name
    ,                         !- Space Name
    Outdoors,                 !- Outside Boundary Condition
    ,                         !- Outside Boundary Condition Object
    SunExposed,               !- Sun Exposure
    WindExposed,              !- Wind Exposure
    autocalculate,            !- View Factor to Ground
    autocalculate,            !- Number of Vertices
    0,                        !- Vertex 1 Xcoordinate
    5.394811453763396,        !- Vertex 1 Ycoordinate
    45,                       !- Vertex 1 Zcoordinate
    0,                        !- Vertex 2 Xcoordinate
    5.394811453763396,        !- Vertex 2 Ycoordinate
    42,                       !- Vertex 2 Zcoordinate
    8.370411821699236,        !- Vertex 3 Xcoordinate
    5.283091011922807,        !- Vertex 3 Ycoordinate
    42,                       !- Vertex 3 Zcoordinate
    8.370411821699236,        !- Vertex 4 Xcoordinate
    5.283091011922807,        !- Vertex 4 Ycoordinate
    45;                       !- Vertex 4 Zcoordinate

BUILDINGSURFACE:DETAILED,
    Block Poly_87_Residential_3 Storey 14 Wall 0012,    !- Name
    Wall,                     !- Surface Type
    HSCWZ_Residential_2005_ExtWall,    !- Construction Name
    Block Poly_87_Residential_3 Storey 14,    !- Zone Name
    ,                         !- Space Name
    Outdoors,                 !- Outside Boundary Condition
    ,                         !- Outside Boundary Condition Object
    SunExposed,               !- Sun Exposure
    WindExposed,              !- Wind Exposure
    autocalculate,            !- View Factor to Ground
    autocalculate,            !- Number of Vertices
    8.370411821699236,        !- Vertex 1 Xcoordinate
    5.283091011922807,        !- Vertex 1 Ycoordinate
    45,                       !- Vertex 1 Zcoordinate
    8.370411821699236,        !- Vertex 2 Xcoordinate
    5.283091011922807,        !- Vertex 2 Ycoordinate
    42,                       !- Vertex 2 Zcoordinate
    8.308274807932321,        !- Vertex 3 Xcoordinate
    0.6274677002802491,       !- Vertex 3 Ycoordinate
    42,                       !- Vertex 3 Zcoordinate
    8.308274807932321,        !- Vertex 4 Xcoordinate
    0.6274677002802491,       !- Vertex 4 Ycoordinate
    45;                       !- Vertex 4 Zcoordinate

BUILDINGSURFACE:DETAILED,
    Block Poly_87_Residential_3 Storey 15 Wall 0001,    !- Name
    Wall,                     !- Surface Type
    HSCWZ_Residential_2005_ExtWall,    !- Construction Name
    Block Poly_87_Residential_3 Storey 15,    !- Zone Name
    ,                         !- Space Name
    Outdoors,                 !- Outside Boundary Condition
    ,                         !- Outside Boundary Condition Object
    SunExposed,               !- Sun Exposure
    WindExposed,              !- Wind Exposure
    autocalculate,            !- View Factor to Ground
    autocalculate,            !- Number of Vertices
    8.308274807932321,        !- Vertex 1 Xcoordinate
    0.6274677002802491,       !- Vertex 1 Ycoordinate
    48,                       !- Vertex 1 Zcoordinate
    8.308274807932321,        !- Vertex 2 Xcoordinate
    0.6274677002802491,       !- Vertex 2 Ycoordinate
    45,                       !- Vertex 2 Zcoordinate
    18.9615307400818,         !- Vertex 3 Xcoordinate
    0.4852878404781222,       !- Vertex 3 Ycoordinate
    45,                       !- Vertex 3 Zcoordinate
    18.9615307400818,         !- Vertex 4 Xcoordinate
    0.4852878404781222,       !- Vertex 4 Ycoordinate
    48;                       !- Vertex 4 Zcoordinate

BUILDINGSURFACE:DETAILED,
    Block Poly_87_Residential_3 Storey 15 Wall 0002,    !- Name
    Wall,                     !- Surface Type
    HSCWZ_Residential_2005_ExtWall,    !- Construction Name
    Block Poly_87_Residential_3 Storey 15,    !- Zone Name
    ,                         !- Space Name
    Outdoors,                 !- Outside Boundary Condition
    ,                         !- Outside Boundary Condition Object
    SunExposed,               !- Sun Exposure
    WindExposed,              !- Wind Exposure
    autocalculate,            !- View Factor to Ground
    autocalculate,            !- Number of Vertices
    18.9615307400818,         !- Vertex 1 Xcoordinate
    0.4852878404781222,       !- Vertex 1 Ycoordinate
    48,                       !- Vertex 1 Zcoordinate
    18.9615307400818,         !- Vertex 2 Xcoordinate
    0.4852878404781222,       !- Vertex 2 Ycoordinate
    45,                       !- Vertex 2 Zcoordinate
    19.1173019867274,         !- Vertex 3 Xcoordinate
    5.028793456964195,        !- Vertex 3 Ycoordinate
    45,                       !- Vertex 3 Zcoordinate
    19.1173019867274,         !- Vertex 4 Xcoordinate
    5.028793456964195,        !- Vertex 4 Ycoordinate
    48;                       !- Vertex 4 Zcoordinate

BUILDINGSURFACE:DETAILED,
    Block Poly_87_Residential_3 Storey 15 Wall 0003,    !- Name
    Wall,                     !- Surface Type
    HSCWZ_Residential_2005_ExtWall,    !- Construction Name
    Block Poly_87_Residential_3 Storey 15,    !- Zone Name
    ,                         !- Space Name
    Outdoors,                 !- Outside Boundary Condition
    ,                         !- Outside Boundary Condition Object
    SunExposed,               !- Sun Exposure
    WindExposed,              !- Wind Exposure
    autocalculate,            !- View Factor to Ground
    autocalculate,            !- Number of Vertices
    19.1173019867274,         !- Vertex 1 Xcoordinate
    5.028793456964195,        !- Vertex 1 Ycoordinate
    48,                       !- Vertex 1 Zcoordinate
    19.1173019867274,         !- Vertex 2 Xcoordinate
    5.028793456964195,        !- Vertex 2 Ycoordinate
    45,                       !- Vertex 2 Zcoordinate
    36.42883482348407,        !- Vertex 3 Xcoordinate
    4.79777431068942,         !- Vertex 3 Ycoordinate
    45,                       !- Vertex 3 Zcoordinate
    36.42883482348407,        !- Vertex 4 Xcoordinate
    4.79777431068942,         !- Vertex 4 Ycoordinate
    48;                       !- Vertex 4 Zcoordinate

BUILDINGSURFACE:DETAILED,
    Block Poly_87_Residential_3 Storey 15 Wall 0004,    !- Name
    Wall,                     !- Surface Type
    HSCWZ_Residential_2005_ExtWall,    !- Construction Name
    Block Poly_87_Residential_3 Storey 15,    !- Zone Name
    ,                         !- Space Name
    Outdoors,                 !- Outside Boundary Condition
    ,                         !- Outside Boundary Condition Object
    SunExposed,               !- Sun Exposure
    WindExposed,              !- Wind Exposure
    autocalculate,            !- View Factor to Ground
    autocalculate,            !- Number of Vertices
    36.42883482348407,        !- Vertex 1 Xcoordinate
    4.79777431068942,         !- Vertex 1 Ycoordinate
    48,                       !- Vertex 1 Zcoordinate
    36.42883482348407,        !- Vertex 2 Xcoordinate
    4.79777431068942,         !- Vertex 2 Ycoordinate
    45,                       !- Vertex 2 Zcoordinate
    36.36671029863646,        !- Vertex 3 Xcoordinate
    0.1421512835659086,       !- Vertex 3 Ycoordinate
    45,                       !- Vertex 3 Zcoordinate
    36.36671029863646,        !- Vertex 4 Xcoordinate
    0.1421512835659086,       !- Vertex 4 Ycoordinate
    48;                       !- Vertex 4 Zcoordinate

BUILDINGSURFACE:DETAILED,
    Block Poly_87_Residential_3 Storey 15 Wall 0005,    !- Name
    Wall,                     !- Surface Type
    HSCWZ_Residential_2005_ExtWall,    !- Construction Name
    Block Poly_87_Residential_3 Storey 15,    !- Zone Name
    ,                         !- Space Name
    Outdoors,                 !- Outside Boundary Condition
    ,                         !- Outside Boundary Condition Object
    SunExposed,               !- Sun Exposure
    WindExposed,              !- Wind Exposure
    autocalculate,            !- View Factor to Ground
    autocalculate,            !- Number of Vertices
    36.36671029863646,        !- Vertex 1 Xcoordinate
    0.1421512835659086,       !- Vertex 1 Ycoordinate
    48,                       !- Vertex 1 Zcoordinate
    36.36671029863646,        !- Vertex 2 Xcoordinate
    0.1421512835659086,       !- Vertex 2 Ycoordinate
    45,                       !- Vertex 2 Zcoordinate
    47.01996569457697,        !- Vertex 3 Xcoordinate
    0,                        !- Vertex 3 Ycoordinate
    45,                       !- Vertex 3 Zcoordinate
    47.01996569457697,        !- Vertex 4 Xcoordinate
    0,                        !- Vertex 4 Ycoordinate
    48;                       !- Vertex 4 Zcoordinate

BUILDINGSURFACE:DETAILED,
    Block Poly_87_Residential_3 Storey 15 Wall 0006,    !- Name
    Wall,                     !- Surface Type
    HSCWZ_Residential_2005_ExtWall,    !- Construction Name
    Block Poly_87_Residential_3 Storey 15,    !- Zone Name
    ,                         !- Space Name
    Outdoors,                 !- Outside Boundary Condition
    ,                         !- Outside Boundary Condition Object
    SunExposed,               !- Sun Exposure
    WindExposed,              !- Wind Exposure
    autocalculate,            !- View Factor to Ground
    autocalculate,            !- Number of Vertices
    47.01996569457697,        !- Vertex 1 Xcoordinate
    0,                        !- Vertex 1 Ycoordinate
    48,                       !- Vertex 1 Zcoordinate
    47.01996569457697,        !- Vertex 2 Xcoordinate
    0,                        !- Vertex 2 Ycoordinate
    45,                       !- Vertex 2 Zcoordinate
    47.17720378719969,        !- Vertex 3 Xcoordinate
    4.654353759717196,        !- Vertex 3 Ycoordinate
    45,                       !- Vertex 3 Zcoordinate
    47.17720378719969,        !- Vertex 4 Xcoordinate
    4.654353759717196,        !- Vertex 4 Ycoordinate
    48;                       !- Vertex 4 Zcoordinate

BUILDINGSURFACE:DETAILED,
    Block Poly_87_Residential_3 Storey 15 Wall 0007,    !- Name
    Wall,                     !- Surface Type
    HSCWZ_Residential_2005_ExtWall,    !- Construction Name
    Block Poly_87_Residential_3 Storey 15,    !- Zone Name
    ,                         !- Space Name
    Outdoors,                 !- Outside Boundary Condition
    ,                         !- Outside Boundary Condition Object
    SunExposed,               !- Sun Exposure
    WindExposed,              !- Wind Exposure
    autocalculate,            !- View Factor to Ground
    autocalculate,            !- Number of Vertices
    47.17720378719969,        !- Vertex 1 Xcoordinate
    4.654353759717196,        !- Vertex 1 Ycoordinate
    48,                       !- Vertex 1 Zcoordinate
    47.17720378719969,        !- Vertex 2 Xcoordinate
    4.654353759717196,        !- Vertex 2 Ycoordinate
    45,                       !- Vertex 2 Zcoordinate
    56.211964038957376,       !- Vertex 3 Xcoordinate
    4.422939342446625,        !- Vertex 3 Ycoordinate
    45,                       !- Vertex 3 Zcoordinate
    56.211964038957376,       !- Vertex 4 Xcoordinate
    4.422939342446625,        !- Vertex 4 Ycoordinate
    48;                       !- Vertex 4 Zcoordinate

BUILDINGSURFACE:DETAILED,
    Block Poly_87_Residential_3 Storey 15 Wall 0008,    !- Name
    Wall,                     !- Surface Type
    HSCWZ_Residential_2005_ExtWall,    !- Construction Name
    Block Poly_87_Residential_3 Storey 15,    !- Zone Name
    ,                         !- Space Name
    Outdoors,                 !- Outside Boundary Condition
    ,                         !- Outside Boundary Condition Object
    SunExposed,               !- Sun Exposure
    WindExposed,              !- Wind Exposure
    autocalculate,            !- View Factor to Ground
    autocalculate,            !- Number of Vertices
    56.211964038957376,       !- Vertex 1 Xcoordinate
    4.422939342446625,        !- Vertex 1 Ycoordinate
    48,                       !- Vertex 1 Zcoordinate
    56.211964038957376,       !- Vertex 2 Xcoordinate
    4.422939342446625,        !- Vertex 2 Ycoordinate
    45,                       !- Vertex 2 Zcoordinate
    56.239598526794,          !- Vertex 3 Xcoordinate
    13.62460599699989,        !- Vertex 3 Ycoordinate
    45,                       !- Vertex 3 Zcoordinate
    56.239598526794,          !- Vertex 4 Xcoordinate
    13.62460599699989,        !- Vertex 4 Ycoordinate
    48;                       !- Vertex 4 Zcoordinate

BUILDINGSURFACE:DETAILED,
    Block Poly_87_Residential_3 Storey 15 Wall 0009,    !- Name
    Wall,                     !- Surface Type
    HSCWZ_Residential_2005_ExtWall,    !- Construction Name
    Block Poly_87_Residential_3 Storey 15,    !- Zone Name
    ,                         !- Space Name
    Outdoors,                 !- Outside Boundary Condition
    ,                         !- Outside Boundary Condition Object
    SunExposed,               !- Sun Exposure
    WindExposed,              !- Wind Exposure
    autocalculate,            !- View Factor to Ground
    autocalculate,            !- Number of Vertices
    56.239598526794,          !- Vertex 1 Xcoordinate
    13.62460599699989,        !- Vertex 1 Ycoordinate
    48,                       !- Vertex 1 Zcoordinate
    56.239598526794,          !- Vertex 2 Xcoordinate
    13.62460599699989,        !- Vertex 2 Ycoordinate
    45,                       !- Vertex 2 Zcoordinate
    0.1228021571296267,       !- Vertex 3 Xcoordinate
    14.595210153609514,       !- Vertex 3 Ycoordinate
    45,                       !- Vertex 3 Zcoordinate
    0.1228021571296267,       !- Vertex 4 Xcoordinate
    14.595210153609514,       !- Vertex 4 Ycoordinate
    48;                       !- Vertex 4 Zcoordinate

BUILDINGSURFACE:DETAILED,
    Block Poly_87_Residential_3 Storey 15 Wall 0010,    !- Name
    Wall,                     !- Surface Type
    HSCWZ_Residential_2005_ExtWall,    !- Construction Name
    Block Poly_87_Residential_3 Storey 15,    !- Zone Name
    ,                         !- Space Name
    Outdoors,                 !- Outside Boundary Condition
    ,                         !- Outside Boundary Condition Object
    SunExposed,               !- Sun Exposure
    WindExposed,              !- Wind Exposure
    autocalculate,            !- View Factor to Ground
    autocalculate,            !- Number of Vertices
    0.1228021571296267,       !- Vertex 1 Xcoordinate
    14.595210153609514,       !- Vertex 1 Ycoordinate
    48,                       !- Vertex 1 Zcoordinate
    0.1228021571296267,       !- Vertex 2 Xcoordinate
    14.595210153609514,       !- Vertex 2 Ycoordinate
    45,                       !- Vertex 2 Zcoordinate
    0,                        !- Vertex 3 Xcoordinate
    5.394811453763396,        !- Vertex 3 Ycoordinate
    45,                       !- Vertex 3 Zcoordinate
    0,                        !- Vertex 4 Xcoordinate
    5.394811453763396,        !- Vertex 4 Ycoordinate
    48;                       !- Vertex 4 Zcoordinate

BUILDINGSURFACE:DETAILED,
    Block Poly_87_Residential_3 Storey 15 Wall 0011,    !- Name
    Wall,                     !- Surface Type
    HSCWZ_Residential_2005_ExtWall,    !- Construction Name
    Block Poly_87_Residential_3 Storey 15,    !- Zone Name
    ,                         !- Space Name
    Outdoors,                 !- Outside Boundary Condition
    ,                         !- Outside Boundary Condition Object
    SunExposed,               !- Sun Exposure
    WindExposed,              !- Wind Exposure
    autocalculate,            !- View Factor to Ground
    autocalculate,            !- Number of Vertices
    0,                        !- Vertex 1 Xcoordinate
    5.394811453763396,        !- Vertex 1 Ycoordinate
    48,                       !- Vertex 1 Zcoordinate
    0,                        !- Vertex 2 Xcoordinate
    5.394811453763396,        !- Vertex 2 Ycoordinate
    45,                       !- Vertex 2 Zcoordinate
    8.370411821699236,        !- Vertex 3 Xcoordinate
    5.283091011922807,        !- Vertex 3 Ycoordinate
    45,                       !- Vertex 3 Zcoordinate
    8.370411821699236,        !- Vertex 4 Xcoordinate
    5.283091011922807,        !- Vertex 4 Ycoordinate
    48;                       !- Vertex 4 Zcoordinate

BUILDINGSURFACE:DETAILED,
    Block Poly_87_Residential_3 Storey 15 Wall 0012,    !- Name
    Wall,                     !- Surface Type
    HSCWZ_Residential_2005_ExtWall,    !- Construction Name
    Block Poly_87_Residential_3 Storey 15,    !- Zone Name
    ,                         !- Space Name
    Outdoors,                 !- Outside Boundary Condition
    ,                         !- Outside Boundary Condition Object
    SunExposed,               !- Sun Exposure
    WindExposed,              !- Wind Exposure
    autocalculate,            !- View Factor to Ground
    autocalculate,            !- Number of Vertices
    8.370411821699236,        !- Vertex 1 Xcoordinate
    5.283091011922807,        !- Vertex 1 Ycoordinate
    48,                       !- Vertex 1 Zcoordinate
    8.370411821699236,        !- Vertex 2 Xcoordinate
    5.283091011922807,        !- Vertex 2 Ycoordinate
    45,                       !- Vertex 2 Zcoordinate
    8.308274807932321,        !- Vertex 3 Xcoordinate
    0.6274677002802491,       !- Vertex 3 Ycoordinate
    45,                       !- Vertex 3 Zcoordinate
    8.308274807932321,        !- Vertex 4 Xcoordinate
    0.6274677002802491,       !- Vertex 4 Ycoordinate
    48;                       !- Vertex 4 Zcoordinate

BUILDINGSURFACE:DETAILED,
    Block Poly_87_Residential_3 Storey 16 Wall 0001,    !- Name
    Wall,                     !- Surface Type
    HSCWZ_Residential_2005_ExtWall,    !- Construction Name
    Block Poly_87_Residential_3 Storey 16,    !- Zone Name
    ,                         !- Space Name
    Outdoors,                 !- Outside Boundary Condition
    ,                         !- Outside Boundary Condition Object
    SunExposed,               !- Sun Exposure
    WindExposed,              !- Wind Exposure
    autocalculate,            !- View Factor to Ground
    autocalculate,            !- Number of Vertices
    8.308274807932321,        !- Vertex 1 Xcoordinate
    0.6274677002802491,       !- Vertex 1 Ycoordinate
    51,                       !- Vertex 1 Zcoordinate
    8.308274807932321,        !- Vertex 2 Xcoordinate
    0.6274677002802491,       !- Vertex 2 Ycoordinate
    48,                       !- Vertex 2 Zcoordinate
    18.9615307400818,         !- Vertex 3 Xcoordinate
    0.4852878404781222,       !- Vertex 3 Ycoordinate
    48,                       !- Vertex 3 Zcoordinate
    18.9615307400818,         !- Vertex 4 Xcoordinate
    0.4852878404781222,       !- Vertex 4 Ycoordinate
    51;                       !- Vertex 4 Zcoordinate

BUILDINGSURFACE:DETAILED,
    Block Poly_87_Residential_3 Storey 16 Wall 0002,    !- Name
    Wall,                     !- Surface Type
    HSCWZ_Residential_2005_ExtWall,    !- Construction Name
    Block Poly_87_Residential_3 Storey 16,    !- Zone Name
    ,                         !- Space Name
    Outdoors,                 !- Outside Boundary Condition
    ,                         !- Outside Boundary Condition Object
    SunExposed,               !- Sun Exposure
    WindExposed,              !- Wind Exposure
    autocalculate,            !- View Factor to Ground
    autocalculate,            !- Number of Vertices
    18.9615307400818,         !- Vertex 1 Xcoordinate
    0.4852878404781222,       !- Vertex 1 Ycoordinate
    51,                       !- Vertex 1 Zcoordinate
    18.9615307400818,         !- Vertex 2 Xcoordinate
    0.4852878404781222,       !- Vertex 2 Ycoordinate
    48,                       !- Vertex 2 Zcoordinate
    19.1173019867274,         !- Vertex 3 Xcoordinate
    5.028793456964195,        !- Vertex 3 Ycoordinate
    48,                       !- Vertex 3 Zcoordinate
    19.1173019867274,         !- Vertex 4 Xcoordinate
    5.028793456964195,        !- Vertex 4 Ycoordinate
    51;                       !- Vertex 4 Zcoordinate

BUILDINGSURFACE:DETAILED,
    Block Poly_87_Residential_3 Storey 16 Wall 0003,    !- Name
    Wall,                     !- Surface Type
    HSCWZ_Residential_2005_ExtWall,    !- Construction Name
    Block Poly_87_Residential_3 Storey 16,    !- Zone Name
    ,                         !- Space Name
    Outdoors,                 !- Outside Boundary Condition
    ,                         !- Outside Boundary Condition Object
    SunExposed,               !- Sun Exposure
    WindExposed,              !- Wind Exposure
    autocalculate,            !- View Factor to Ground
    autocalculate,            !- Number of Vertices
    19.1173019867274,         !- Vertex 1 Xcoordinate
    5.028793456964195,        !- Vertex 1 Ycoordinate
    51,                       !- Vertex 1 Zcoordinate
    19.1173019867274,         !- Vertex 2 Xcoordinate
    5.028793456964195,        !- Vertex 2 Ycoordinate
    48,                       !- Vertex 2 Zcoordinate
    36.42883482348407,        !- Vertex 3 Xcoordinate
    4.79777431068942,         !- Vertex 3 Ycoordinate
    48,                       !- Vertex 3 Zcoordinate
    36.42883482348407,        !- Vertex 4 Xcoordinate
    4.79777431068942,         !- Vertex 4 Ycoordinate
    51;                       !- Vertex 4 Zcoordinate

BUILDINGSURFACE:DETAILED,
    Block Poly_87_Residential_3 Storey 16 Wall 0004,    !- Name
    Wall,                     !- Surface Type
    HSCWZ_Residential_2005_ExtWall,    !- Construction Name
    Block Poly_87_Residential_3 Storey 16,    !- Zone Name
    ,                         !- Space Name
    Outdoors,                 !- Outside Boundary Condition
    ,                         !- Outside Boundary Condition Object
    SunExposed,               !- Sun Exposure
    WindExposed,              !- Wind Exposure
    autocalculate,            !- View Factor to Ground
    autocalculate,            !- Number of Vertices
    36.42883482348407,        !- Vertex 1 Xcoordinate
    4.79777431068942,         !- Vertex 1 Ycoordinate
    51,                       !- Vertex 1 Zcoordinate
    36.42883482348407,        !- Vertex 2 Xcoordinate
    4.79777431068942,         !- Vertex 2 Ycoordinate
    48,                       !- Vertex 2 Zcoordinate
    36.36671029863646,        !- Vertex 3 Xcoordinate
    0.1421512835659086,       !- Vertex 3 Ycoordinate
    48,                       !- Vertex 3 Zcoordinate
    36.36671029863646,        !- Vertex 4 Xcoordinate
    0.1421512835659086,       !- Vertex 4 Ycoordinate
    51;                       !- Vertex 4 Zcoordinate

BUILDINGSURFACE:DETAILED,
    Block Poly_87_Residential_3 Storey 16 Wall 0005,    !- Name
    Wall,                     !- Surface Type
    HSCWZ_Residential_2005_ExtWall,    !- Construction Name
    Block Poly_87_Residential_3 Storey 16,    !- Zone Name
    ,                         !- Space Name
    Outdoors,                 !- Outside Boundary Condition
    ,                         !- Outside Boundary Condition Object
    SunExposed,               !- Sun Exposure
    WindExposed,              !- Wind Exposure
    autocalculate,            !- View Factor to Ground
    autocalculate,            !- Number of Vertices
    36.36671029863646,        !- Vertex 1 Xcoordinate
    0.1421512835659086,       !- Vertex 1 Ycoordinate
    51,                       !- Vertex 1 Zcoordinate
    36.36671029863646,        !- Vertex 2 Xcoordinate
    0.1421512835659086,       !- Vertex 2 Ycoordinate
    48,                       !- Vertex 2 Zcoordinate
    47.01996569457697,        !- Vertex 3 Xcoordinate
    0,                        !- Vertex 3 Ycoordinate
    48,                       !- Vertex 3 Zcoordinate
    47.01996569457697,        !- Vertex 4 Xcoordinate
    0,                        !- Vertex 4 Ycoordinate
    51;                       !- Vertex 4 Zcoordinate

BUILDINGSURFACE:DETAILED,
    Block Poly_87_Residential_3 Storey 16 Wall 0006,    !- Name
    Wall,                     !- Surface Type
    HSCWZ_Residential_2005_ExtWall,    !- Construction Name
    Block Poly_87_Residential_3 Storey 16,    !- Zone Name
    ,                         !- Space Name
    Outdoors,                 !- Outside Boundary Condition
    ,                         !- Outside Boundary Condition Object
    SunExposed,               !- Sun Exposure
    WindExposed,              !- Wind Exposure
    autocalculate,            !- View Factor to Ground
    autocalculate,            !- Number of Vertices
    47.01996569457697,        !- Vertex 1 Xcoordinate
    0,                        !- Vertex 1 Ycoordinate
    51,                       !- Vertex 1 Zcoordinate
    47.01996569457697,        !- Vertex 2 Xcoordinate
    0,                        !- Vertex 2 Ycoordinate
    48,                       !- Vertex 2 Zcoordinate
    47.17720378719969,        !- Vertex 3 Xcoordinate
    4.654353759717196,        !- Vertex 3 Ycoordinate
    48,                       !- Vertex 3 Zcoordinate
    47.17720378719969,        !- Vertex 4 Xcoordinate
    4.654353759717196,        !- Vertex 4 Ycoordinate
    51;                       !- Vertex 4 Zcoordinate

BUILDINGSURFACE:DETAILED,
    Block Poly_87_Residential_3 Storey 16 Wall 0007,    !- Name
    Wall,                     !- Surface Type
    HSCWZ_Residential_2005_ExtWall,    !- Construction Name
    Block Poly_87_Residential_3 Storey 16,    !- Zone Name
    ,                         !- Space Name
    Outdoors,                 !- Outside Boundary Condition
    ,                         !- Outside Boundary Condition Object
    SunExposed,               !- Sun Exposure
    WindExposed,              !- Wind Exposure
    autocalculate,            !- View Factor to Ground
    autocalculate,            !- Number of Vertices
    47.17720378719969,        !- Vertex 1 Xcoordinate
    4.654353759717196,        !- Vertex 1 Ycoordinate
    51,                       !- Vertex 1 Zcoordinate
    47.17720378719969,        !- Vertex 2 Xcoordinate
    4.654353759717196,        !- Vertex 2 Ycoordinate
    48,                       !- Vertex 2 Zcoordinate
    56.211964038957376,       !- Vertex 3 Xcoordinate
    4.422939342446625,        !- Vertex 3 Ycoordinate
    48,                       !- Vertex 3 Zcoordinate
    56.211964038957376,       !- Vertex 4 Xcoordinate
    4.422939342446625,        !- Vertex 4 Ycoordinate
    51;                       !- Vertex 4 Zcoordinate

BUILDINGSURFACE:DETAILED,
    Block Poly_87_Residential_3 Storey 16 Wall 0008,    !- Name
    Wall,                     !- Surface Type
    HSCWZ_Residential_2005_ExtWall,    !- Construction Name
    Block Poly_87_Residential_3 Storey 16,    !- Zone Name
    ,                         !- Space Name
    Outdoors,                 !- Outside Boundary Condition
    ,                         !- Outside Boundary Condition Object
    SunExposed,               !- Sun Exposure
    WindExposed,              !- Wind Exposure
    autocalculate,            !- View Factor to Ground
    autocalculate,            !- Number of Vertices
    56.211964038957376,       !- Vertex 1 Xcoordinate
    4.422939342446625,        !- Vertex 1 Ycoordinate
    51,                       !- Vertex 1 Zcoordinate
    56.211964038957376,       !- Vertex 2 Xcoordinate
    4.422939342446625,        !- Vertex 2 Ycoordinate
    48,                       !- Vertex 2 Zcoordinate
    56.239598526794,          !- Vertex 3 Xcoordinate
    13.62460599699989,        !- Vertex 3 Ycoordinate
    48,                       !- Vertex 3 Zcoordinate
    56.239598526794,          !- Vertex 4 Xcoordinate
    13.62460599699989,        !- Vertex 4 Ycoordinate
    51;                       !- Vertex 4 Zcoordinate

BUILDINGSURFACE:DETAILED,
    Block Poly_87_Residential_3 Storey 16 Wall 0009,    !- Name
    Wall,                     !- Surface Type
    HSCWZ_Residential_2005_ExtWall,    !- Construction Name
    Block Poly_87_Residential_3 Storey 16,    !- Zone Name
    ,                         !- Space Name
    Outdoors,                 !- Outside Boundary Condition
    ,                         !- Outside Boundary Condition Object
    SunExposed,               !- Sun Exposure
    WindExposed,              !- Wind Exposure
    autocalculate,            !- View Factor to Ground
    autocalculate,            !- Number of Vertices
    56.239598526794,          !- Vertex 1 Xcoordinate
    13.62460599699989,        !- Vertex 1 Ycoordinate
    51,                       !- Vertex 1 Zcoordinate
    56.239598526794,          !- Vertex 2 Xcoordinate
    13.62460599699989,        !- Vertex 2 Ycoordinate
    48,                       !- Vertex 2 Zcoordinate
    0.1228021571296267,       !- Vertex 3 Xcoordinate
    14.595210153609514,       !- Vertex 3 Ycoordinate
    48,                       !- Vertex 3 Zcoordinate
    0.1228021571296267,       !- Vertex 4 Xcoordinate
    14.595210153609514,       !- Vertex 4 Ycoordinate
    51;                       !- Vertex 4 Zcoordinate

BUILDINGSURFACE:DETAILED,
    Block Poly_87_Residential_3 Storey 16 Wall 0010,    !- Name
    Wall,                     !- Surface Type
    HSCWZ_Residential_2005_ExtWall,    !- Construction Name
    Block Poly_87_Residential_3 Storey 16,    !- Zone Name
    ,                         !- Space Name
    Outdoors,                 !- Outside Boundary Condition
    ,                         !- Outside Boundary Condition Object
    SunExposed,               !- Sun Exposure
    WindExposed,              !- Wind Exposure
    autocalculate,            !- View Factor to Ground
    autocalculate,            !- Number of Vertices
    0.1228021571296267,       !- Vertex 1 Xcoordinate
    14.595210153609514,       !- Vertex 1 Ycoordinate
    51,                       !- Vertex 1 Zcoordinate
    0.1228021571296267,       !- Vertex 2 Xcoordinate
    14.595210153609514,       !- Vertex 2 Ycoordinate
    48,                       !- Vertex 2 Zcoordinate
    0,                        !- Vertex 3 Xcoordinate
    5.394811453763396,        !- Vertex 3 Ycoordinate
    48,                       !- Vertex 3 Zcoordinate
    0,                        !- Vertex 4 Xcoordinate
    5.394811453763396,        !- Vertex 4 Ycoordinate
    51;                       !- Vertex 4 Zcoordinate

BUILDINGSURFACE:DETAILED,
    Block Poly_87_Residential_3 Storey 16 Wall 0011,    !- Name
    Wall,                     !- Surface Type
    HSCWZ_Residential_2005_ExtWall,    !- Construction Name
    Block Poly_87_Residential_3 Storey 16,    !- Zone Name
    ,                         !- Space Name
    Outdoors,                 !- Outside Boundary Condition
    ,                         !- Outside Boundary Condition Object
    SunExposed,               !- Sun Exposure
    WindExposed,              !- Wind Exposure
    autocalculate,            !- View Factor to Ground
    autocalculate,            !- Number of Vertices
    0,                        !- Vertex 1 Xcoordinate
    5.394811453763396,        !- Vertex 1 Ycoordinate
    51,                       !- Vertex 1 Zcoordinate
    0,                        !- Vertex 2 Xcoordinate
    5.394811453763396,        !- Vertex 2 Ycoordinate
    48,                       !- Vertex 2 Zcoordinate
    8.370411821699236,        !- Vertex 3 Xcoordinate
    5.283091011922807,        !- Vertex 3 Ycoordinate
    48,                       !- Vertex 3 Zcoordinate
    8.370411821699236,        !- Vertex 4 Xcoordinate
    5.283091011922807,        !- Vertex 4 Ycoordinate
    51;                       !- Vertex 4 Zcoordinate

BUILDINGSURFACE:DETAILED,
    Block Poly_87_Residential_3 Storey 16 Wall 0012,    !- Name
    Wall,                     !- Surface Type
    HSCWZ_Residential_2005_ExtWall,    !- Construction Name
    Block Poly_87_Residential_3 Storey 16,    !- Zone Name
    ,                         !- Space Name
    Outdoors,                 !- Outside Boundary Condition
    ,                         !- Outside Boundary Condition Object
    SunExposed,               !- Sun Exposure
    WindExposed,              !- Wind Exposure
    autocalculate,            !- View Factor to Ground
    autocalculate,            !- Number of Vertices
    8.370411821699236,        !- Vertex 1 Xcoordinate
    5.283091011922807,        !- Vertex 1 Ycoordinate
    51,                       !- Vertex 1 Zcoordinate
    8.370411821699236,        !- Vertex 2 Xcoordinate
    5.283091011922807,        !- Vertex 2 Ycoordinate
    48,                       !- Vertex 2 Zcoordinate
    8.308274807932321,        !- Vertex 3 Xcoordinate
    0.6274677002802491,       !- Vertex 3 Ycoordinate
    48,                       !- Vertex 3 Zcoordinate
    8.308274807932321,        !- Vertex 4 Xcoordinate
    0.6274677002802491,       !- Vertex 4 Ycoordinate
    51;                       !- Vertex 4 Zcoordinate

BUILDINGSURFACE:DETAILED,
    Block Poly_87_Residential_3 Storey 17 Wall 0001,    !- Name
    Wall,                     !- Surface Type
    HSCWZ_Residential_2005_ExtWall,    !- Construction Name
    Block Poly_87_Residential_3 Storey 17,    !- Zone Name
    ,                         !- Space Name
    Outdoors,                 !- Outside Boundary Condition
    ,                         !- Outside Boundary Condition Object
    SunExposed,               !- Sun Exposure
    WindExposed,              !- Wind Exposure
    autocalculate,            !- View Factor to Ground
    autocalculate,            !- Number of Vertices
    8.308274807932321,        !- Vertex 1 Xcoordinate
    0.6274677002802491,       !- Vertex 1 Ycoordinate
    54,                       !- Vertex 1 Zcoordinate
    8.308274807932321,        !- Vertex 2 Xcoordinate
    0.6274677002802491,       !- Vertex 2 Ycoordinate
    51,                       !- Vertex 2 Zcoordinate
    18.9615307400818,         !- Vertex 3 Xcoordinate
    0.4852878404781222,       !- Vertex 3 Ycoordinate
    51,                       !- Vertex 3 Zcoordinate
    18.9615307400818,         !- Vertex 4 Xcoordinate
    0.4852878404781222,       !- Vertex 4 Ycoordinate
    54;                       !- Vertex 4 Zcoordinate

BUILDINGSURFACE:DETAILED,
    Block Poly_87_Residential_3 Storey 17 Wall 0002,    !- Name
    Wall,                     !- Surface Type
    HSCWZ_Residential_2005_ExtWall,    !- Construction Name
    Block Poly_87_Residential_3 Storey 17,    !- Zone Name
    ,                         !- Space Name
    Outdoors,                 !- Outside Boundary Condition
    ,                         !- Outside Boundary Condition Object
    SunExposed,               !- Sun Exposure
    WindExposed,              !- Wind Exposure
    autocalculate,            !- View Factor to Ground
    autocalculate,            !- Number of Vertices
    18.9615307400818,         !- Vertex 1 Xcoordinate
    0.4852878404781222,       !- Vertex 1 Ycoordinate
    54,                       !- Vertex 1 Zcoordinate
    18.9615307400818,         !- Vertex 2 Xcoordinate
    0.4852878404781222,       !- Vertex 2 Ycoordinate
    51,                       !- Vertex 2 Zcoordinate
    19.1173019867274,         !- Vertex 3 Xcoordinate
    5.028793456964195,        !- Vertex 3 Ycoordinate
    51,                       !- Vertex 3 Zcoordinate
    19.1173019867274,         !- Vertex 4 Xcoordinate
    5.028793456964195,        !- Vertex 4 Ycoordinate
    54;                       !- Vertex 4 Zcoordinate

BUILDINGSURFACE:DETAILED,
    Block Poly_87_Residential_3 Storey 17 Wall 0003,    !- Name
    Wall,                     !- Surface Type
    HSCWZ_Residential_2005_ExtWall,    !- Construction Name
    Block Poly_87_Residential_3 Storey 17,    !- Zone Name
    ,                         !- Space Name
    Outdoors,                 !- Outside Boundary Condition
    ,                         !- Outside Boundary Condition Object
    SunExposed,               !- Sun Exposure
    WindExposed,              !- Wind Exposure
    autocalculate,            !- View Factor to Ground
    autocalculate,            !- Number of Vertices
    19.1173019867274,         !- Vertex 1 Xcoordinate
    5.028793456964195,        !- Vertex 1 Ycoordinate
    54,                       !- Vertex 1 Zcoordinate
    19.1173019867274,         !- Vertex 2 Xcoordinate
    5.028793456964195,        !- Vertex 2 Ycoordinate
    51,                       !- Vertex 2 Zcoordinate
    36.42883482348407,        !- Vertex 3 Xcoordinate
    4.79777431068942,         !- Vertex 3 Ycoordinate
    51,                       !- Vertex 3 Zcoordinate
    36.42883482348407,        !- Vertex 4 Xcoordinate
    4.79777431068942,         !- Vertex 4 Ycoordinate
    54;                       !- Vertex 4 Zcoordinate

BUILDINGSURFACE:DETAILED,
    Block Poly_87_Residential_3 Storey 17 Wall 0004,    !- Name
    Wall,                     !- Surface Type
    HSCWZ_Residential_2005_ExtWall,    !- Construction Name
    Block Poly_87_Residential_3 Storey 17,    !- Zone Name
    ,                         !- Space Name
    Outdoors,                 !- Outside Boundary Condition
    ,                         !- Outside Boundary Condition Object
    SunExposed,               !- Sun Exposure
    WindExposed,              !- Wind Exposure
    autocalculate,            !- View Factor to Ground
    autocalculate,            !- Number of Vertices
    36.42883482348407,        !- Vertex 1 Xcoordinate
    4.79777431068942,         !- Vertex 1 Ycoordinate
    54,                       !- Vertex 1 Zcoordinate
    36.42883482348407,        !- Vertex 2 Xcoordinate
    4.79777431068942,         !- Vertex 2 Ycoordinate
    51,                       !- Vertex 2 Zcoordinate
    36.36671029863646,        !- Vertex 3 Xcoordinate
    0.1421512835659086,       !- Vertex 3 Ycoordinate
    51,                       !- Vertex 3 Zcoordinate
    36.36671029863646,        !- Vertex 4 Xcoordinate
    0.1421512835659086,       !- Vertex 4 Ycoordinate
    54;                       !- Vertex 4 Zcoordinate

BUILDINGSURFACE:DETAILED,
    Block Poly_87_Residential_3 Storey 17 Wall 0005,    !- Name
    Wall,                     !- Surface Type
    HSCWZ_Residential_2005_ExtWall,    !- Construction Name
    Block Poly_87_Residential_3 Storey 17,    !- Zone Name
    ,                         !- Space Name
    Outdoors,                 !- Outside Boundary Condition
    ,                         !- Outside Boundary Condition Object
    SunExposed,               !- Sun Exposure
    WindExposed,              !- Wind Exposure
    autocalculate,            !- View Factor to Ground
    autocalculate,            !- Number of Vertices
    36.36671029863646,        !- Vertex 1 Xcoordinate
    0.1421512835659086,       !- Vertex 1 Ycoordinate
    54,                       !- Vertex 1 Zcoordinate
    36.36671029863646,        !- Vertex 2 Xcoordinate
    0.1421512835659086,       !- Vertex 2 Ycoordinate
    51,                       !- Vertex 2 Zcoordinate
    47.01996569457697,        !- Vertex 3 Xcoordinate
    0,                        !- Vertex 3 Ycoordinate
    51,                       !- Vertex 3 Zcoordinate
    47.01996569457697,        !- Vertex 4 Xcoordinate
    0,                        !- Vertex 4 Ycoordinate
    54;                       !- Vertex 4 Zcoordinate

BUILDINGSURFACE:DETAILED,
    Block Poly_87_Residential_3 Storey 17 Wall 0006,    !- Name
    Wall,                     !- Surface Type
    HSCWZ_Residential_2005_ExtWall,    !- Construction Name
    Block Poly_87_Residential_3 Storey 17,    !- Zone Name
    ,                         !- Space Name
    Outdoors,                 !- Outside Boundary Condition
    ,                         !- Outside Boundary Condition Object
    SunExposed,               !- Sun Exposure
    WindExposed,              !- Wind Exposure
    autocalculate,            !- View Factor to Ground
    autocalculate,            !- Number of Vertices
    47.01996569457697,        !- Vertex 1 Xcoordinate
    0,                        !- Vertex 1 Ycoordinate
    54,                       !- Vertex 1 Zcoordinate
    47.01996569457697,        !- Vertex 2 Xcoordinate
    0,                        !- Vertex 2 Ycoordinate
    51,                       !- Vertex 2 Zcoordinate
    47.17720378719969,        !- Vertex 3 Xcoordinate
    4.654353759717196,        !- Vertex 3 Ycoordinate
    51,                       !- Vertex 3 Zcoordinate
    47.17720378719969,        !- Vertex 4 Xcoordinate
    4.654353759717196,        !- Vertex 4 Ycoordinate
    54;                       !- Vertex 4 Zcoordinate

BUILDINGSURFACE:DETAILED,
    Block Poly_87_Residential_3 Storey 17 Wall 0007,    !- Name
    Wall,                     !- Surface Type
    HSCWZ_Residential_2005_ExtWall,    !- Construction Name
    Block Poly_87_Residential_3 Storey 17,    !- Zone Name
    ,                         !- Space Name
    Outdoors,                 !- Outside Boundary Condition
    ,                         !- Outside Boundary Condition Object
    SunExposed,               !- Sun Exposure
    WindExposed,              !- Wind Exposure
    autocalculate,            !- View Factor to Ground
    autocalculate,            !- Number of Vertices
    47.17720378719969,        !- Vertex 1 Xcoordinate
    4.654353759717196,        !- Vertex 1 Ycoordinate
    54,                       !- Vertex 1 Zcoordinate
    47.17720378719969,        !- Vertex 2 Xcoordinate
    4.654353759717196,        !- Vertex 2 Ycoordinate
    51,                       !- Vertex 2 Zcoordinate
    56.211964038957376,       !- Vertex 3 Xcoordinate
    4.422939342446625,        !- Vertex 3 Ycoordinate
    51,                       !- Vertex 3 Zcoordinate
    56.211964038957376,       !- Vertex 4 Xcoordinate
    4.422939342446625,        !- Vertex 4 Ycoordinate
    54;                       !- Vertex 4 Zcoordinate

BUILDINGSURFACE:DETAILED,
    Block Poly_87_Residential_3 Storey 17 Wall 0008,    !- Name
    Wall,                     !- Surface Type
    HSCWZ_Residential_2005_ExtWall,    !- Construction Name
    Block Poly_87_Residential_3 Storey 17,    !- Zone Name
    ,                         !- Space Name
    Outdoors,                 !- Outside Boundary Condition
    ,                         !- Outside Boundary Condition Object
    SunExposed,               !- Sun Exposure
    WindExposed,              !- Wind Exposure
    autocalculate,            !- View Factor to Ground
    autocalculate,            !- Number of Vertices
    56.211964038957376,       !- Vertex 1 Xcoordinate
    4.422939342446625,        !- Vertex 1 Ycoordinate
    54,                       !- Vertex 1 Zcoordinate
    56.211964038957376,       !- Vertex 2 Xcoordinate
    4.422939342446625,        !- Vertex 2 Ycoordinate
    51,                       !- Vertex 2 Zcoordinate
    56.239598526794,          !- Vertex 3 Xcoordinate
    13.62460599699989,        !- Vertex 3 Ycoordinate
    51,                       !- Vertex 3 Zcoordinate
    56.239598526794,          !- Vertex 4 Xcoordinate
    13.62460599699989,        !- Vertex 4 Ycoordinate
    54;                       !- Vertex 4 Zcoordinate

BUILDINGSURFACE:DETAILED,
    Block Poly_87_Residential_3 Storey 17 Wall 0009,    !- Name
    Wall,                     !- Surface Type
    HSCWZ_Residential_2005_ExtWall,    !- Construction Name
    Block Poly_87_Residential_3 Storey 17,    !- Zone Name
    ,                         !- Space Name
    Outdoors,                 !- Outside Boundary Condition
    ,                         !- Outside Boundary Condition Object
    SunExposed,               !- Sun Exposure
    WindExposed,              !- Wind Exposure
    autocalculate,            !- View Factor to Ground
    autocalculate,            !- Number of Vertices
    56.239598526794,          !- Vertex 1 Xcoordinate
    13.62460599699989,        !- Vertex 1 Ycoordinate
    54,                       !- Vertex 1 Zcoordinate
    56.239598526794,          !- Vertex 2 Xcoordinate
    13.62460599699989,        !- Vertex 2 Ycoordinate
    51,                       !- Vertex 2 Zcoordinate
    0.1228021571296267,       !- Vertex 3 Xcoordinate
    14.595210153609514,       !- Vertex 3 Ycoordinate
    51,                       !- Vertex 3 Zcoordinate
    0.1228021571296267,       !- Vertex 4 Xcoordinate
    14.595210153609514,       !- Vertex 4 Ycoordinate
    54;                       !- Vertex 4 Zcoordinate

BUILDINGSURFACE:DETAILED,
    Block Poly_87_Residential_3 Storey 17 Wall 0010,    !- Name
    Wall,                     !- Surface Type
    HSCWZ_Residential_2005_ExtWall,    !- Construction Name
    Block Poly_87_Residential_3 Storey 17,    !- Zone Name
    ,                         !- Space Name
    Outdoors,                 !- Outside Boundary Condition
    ,                         !- Outside Boundary Condition Object
    SunExposed,               !- Sun Exposure
    WindExposed,              !- Wind Exposure
    autocalculate,            !- View Factor to Ground
    autocalculate,            !- Number of Vertices
    0.1228021571296267,       !- Vertex 1 Xcoordinate
    14.595210153609514,       !- Vertex 1 Ycoordinate
    54,                       !- Vertex 1 Zcoordinate
    0.1228021571296267,       !- Vertex 2 Xcoordinate
    14.595210153609514,       !- Vertex 2 Ycoordinate
    51,                       !- Vertex 2 Zcoordinate
    0,                        !- Vertex 3 Xcoordinate
    5.394811453763396,        !- Vertex 3 Ycoordinate
    51,                       !- Vertex 3 Zcoordinate
    0,                        !- Vertex 4 Xcoordinate
    5.394811453763396,        !- Vertex 4 Ycoordinate
    54;                       !- Vertex 4 Zcoordinate

BUILDINGSURFACE:DETAILED,
    Block Poly_87_Residential_3 Storey 17 Wall 0011,    !- Name
    Wall,                     !- Surface Type
    HSCWZ_Residential_2005_ExtWall,    !- Construction Name
    Block Poly_87_Residential_3 Storey 17,    !- Zone Name
    ,                         !- Space Name
    Outdoors,                 !- Outside Boundary Condition
    ,                         !- Outside Boundary Condition Object
    SunExposed,               !- Sun Exposure
    WindExposed,              !- Wind Exposure
    autocalculate,            !- View Factor to Ground
    autocalculate,            !- Number of Vertices
    0,                        !- Vertex 1 Xcoordinate
    5.394811453763396,        !- Vertex 1 Ycoordinate
    54,                       !- Vertex 1 Zcoordinate
    0,                        !- Vertex 2 Xcoordinate
    5.394811453763396,        !- Vertex 2 Ycoordinate
    51,                       !- Vertex 2 Zcoordinate
    8.370411821699236,        !- Vertex 3 Xcoordinate
    5.283091011922807,        !- Vertex 3 Ycoordinate
    51,                       !- Vertex 3 Zcoordinate
    8.370411821699236,        !- Vertex 4 Xcoordinate
    5.283091011922807,        !- Vertex 4 Ycoordinate
    54;                       !- Vertex 4 Zcoordinate

BUILDINGSURFACE:DETAILED,
    Block Poly_87_Residential_3 Storey 17 Wall 0012,    !- Name
    Wall,                     !- Surface Type
    HSCWZ_Residential_2005_ExtWall,    !- Construction Name
    Block Poly_87_Residential_3 Storey 17,    !- Zone Name
    ,                         !- Space Name
    Outdoors,                 !- Outside Boundary Condition
    ,                         !- Outside Boundary Condition Object
    SunExposed,               !- Sun Exposure
    WindExposed,              !- Wind Exposure
    autocalculate,            !- View Factor to Ground
    autocalculate,            !- Number of Vertices
    8.370411821699236,        !- Vertex 1 Xcoordinate
    5.283091011922807,        !- Vertex 1 Ycoordinate
    54,                       !- Vertex 1 Zcoordinate
    8.370411821699236,        !- Vertex 2 Xcoordinate
    5.283091011922807,        !- Vertex 2 Ycoordinate
    51,                       !- Vertex 2 Zcoordinate
    8.308274807932321,        !- Vertex 3 Xcoordinate
    0.6274677002802491,       !- Vertex 3 Ycoordinate
    51,                       !- Vertex 3 Zcoordinate
    8.308274807932321,        !- Vertex 4 Xcoordinate
    0.6274677002802491,       !- Vertex 4 Ycoordinate
    54;                       !- Vertex 4 Zcoordinate

BUILDINGSURFACE:DETAILED,
    Block Poly_87_Residential_3 Storey 18 Wall 0001,    !- Name
    Wall,                     !- Surface Type
    HSCWZ_Residential_2005_ExtWall,    !- Construction Name
    Block Poly_87_Residential_3 Storey 18,    !- Zone Name
    ,                         !- Space Name
    Outdoors,                 !- Outside Boundary Condition
    ,                         !- Outside Boundary Condition Object
    SunExposed,               !- Sun Exposure
    WindExposed,              !- Wind Exposure
    autocalculate,            !- View Factor to Ground
    autocalculate,            !- Number of Vertices
    8.308274807932321,        !- Vertex 1 Xcoordinate
    0.6274677002802491,       !- Vertex 1 Ycoordinate
    57,                       !- Vertex 1 Zcoordinate
    8.308274807932321,        !- Vertex 2 Xcoordinate
    0.6274677002802491,       !- Vertex 2 Ycoordinate
    54,                       !- Vertex 2 Zcoordinate
    18.9615307400818,         !- Vertex 3 Xcoordinate
    0.4852878404781222,       !- Vertex 3 Ycoordinate
    54,                       !- Vertex 3 Zcoordinate
    18.9615307400818,         !- Vertex 4 Xcoordinate
    0.4852878404781222,       !- Vertex 4 Ycoordinate
    57;                       !- Vertex 4 Zcoordinate

BUILDINGSURFACE:DETAILED,
    Block Poly_87_Residential_3 Storey 18 Wall 0002,    !- Name
    Wall,                     !- Surface Type
    HSCWZ_Residential_2005_ExtWall,    !- Construction Name
    Block Poly_87_Residential_3 Storey 18,    !- Zone Name
    ,                         !- Space Name
    Outdoors,                 !- Outside Boundary Condition
    ,                         !- Outside Boundary Condition Object
    SunExposed,               !- Sun Exposure
    WindExposed,              !- Wind Exposure
    autocalculate,            !- View Factor to Ground
    autocalculate,            !- Number of Vertices
    18.9615307400818,         !- Vertex 1 Xcoordinate
    0.4852878404781222,       !- Vertex 1 Ycoordinate
    57,                       !- Vertex 1 Zcoordinate
    18.9615307400818,         !- Vertex 2 Xcoordinate
    0.4852878404781222,       !- Vertex 2 Ycoordinate
    54,                       !- Vertex 2 Zcoordinate
    19.1173019867274,         !- Vertex 3 Xcoordinate
    5.028793456964195,        !- Vertex 3 Ycoordinate
    54,                       !- Vertex 3 Zcoordinate
    19.1173019867274,         !- Vertex 4 Xcoordinate
    5.028793456964195,        !- Vertex 4 Ycoordinate
    57;                       !- Vertex 4 Zcoordinate

BUILDINGSURFACE:DETAILED,
    Block Poly_87_Residential_3 Storey 18 Wall 0003,    !- Name
    Wall,                     !- Surface Type
    HSCWZ_Residential_2005_ExtWall,    !- Construction Name
    Block Poly_87_Residential_3 Storey 18,    !- Zone Name
    ,                         !- Space Name
    Outdoors,                 !- Outside Boundary Condition
    ,                         !- Outside Boundary Condition Object
    SunExposed,               !- Sun Exposure
    WindExposed,              !- Wind Exposure
    autocalculate,            !- View Factor to Ground
    autocalculate,            !- Number of Vertices
    19.1173019867274,         !- Vertex 1 Xcoordinate
    5.028793456964195,        !- Vertex 1 Ycoordinate
    57,                       !- Vertex 1 Zcoordinate
    19.1173019867274,         !- Vertex 2 Xcoordinate
    5.028793456964195,        !- Vertex 2 Ycoordinate
    54,                       !- Vertex 2 Zcoordinate
    36.42883482348407,        !- Vertex 3 Xcoordinate
    4.79777431068942,         !- Vertex 3 Ycoordinate
    54,                       !- Vertex 3 Zcoordinate
    36.42883482348407,        !- Vertex 4 Xcoordinate
    4.79777431068942,         !- Vertex 4 Ycoordinate
    57;                       !- Vertex 4 Zcoordinate

BUILDINGSURFACE:DETAILED,
    Block Poly_87_Residential_3 Storey 18 Wall 0004,    !- Name
    Wall,                     !- Surface Type
    HSCWZ_Residential_2005_ExtWall,    !- Construction Name
    Block Poly_87_Residential_3 Storey 18,    !- Zone Name
    ,                         !- Space Name
    Outdoors,                 !- Outside Boundary Condition
    ,                         !- Outside Boundary Condition Object
    SunExposed,               !- Sun Exposure
    WindExposed,              !- Wind Exposure
    autocalculate,            !- View Factor to Ground
    autocalculate,            !- Number of Vertices
    36.42883482348407,        !- Vertex 1 Xcoordinate
    4.79777431068942,         !- Vertex 1 Ycoordinate
    57,                       !- Vertex 1 Zcoordinate
    36.42883482348407,        !- Vertex 2 Xcoordinate
    4.79777431068942,         !- Vertex 2 Ycoordinate
    54,                       !- Vertex 2 Zcoordinate
    36.36671029863646,        !- Vertex 3 Xcoordinate
    0.1421512835659086,       !- Vertex 3 Ycoordinate
    54,                       !- Vertex 3 Zcoordinate
    36.36671029863646,        !- Vertex 4 Xcoordinate
    0.1421512835659086,       !- Vertex 4 Ycoordinate
    57;                       !- Vertex 4 Zcoordinate

BUILDINGSURFACE:DETAILED,
    Block Poly_87_Residential_3 Storey 18 Wall 0005,    !- Name
    Wall,                     !- Surface Type
    HSCWZ_Residential_2005_ExtWall,    !- Construction Name
    Block Poly_87_Residential_3 Storey 18,    !- Zone Name
    ,                         !- Space Name
    Outdoors,                 !- Outside Boundary Condition
    ,                         !- Outside Boundary Condition Object
    SunExposed,               !- Sun Exposure
    WindExposed,              !- Wind Exposure
    autocalculate,            !- View Factor to Ground
    autocalculate,            !- Number of Vertices
    36.36671029863646,        !- Vertex 1 Xcoordinate
    0.1421512835659086,       !- Vertex 1 Ycoordinate
    57,                       !- Vertex 1 Zcoordinate
    36.36671029863646,        !- Vertex 2 Xcoordinate
    0.1421512835659086,       !- Vertex 2 Ycoordinate
    54,                       !- Vertex 2 Zcoordinate
    47.01996569457697,        !- Vertex 3 Xcoordinate
    0,                        !- Vertex 3 Ycoordinate
    54,                       !- Vertex 3 Zcoordinate
    47.01996569457697,        !- Vertex 4 Xcoordinate
    0,                        !- Vertex 4 Ycoordinate
    57;                       !- Vertex 4 Zcoordinate

BUILDINGSURFACE:DETAILED,
    Block Poly_87_Residential_3 Storey 18 Wall 0006,    !- Name
    Wall,                     !- Surface Type
    HSCWZ_Residential_2005_ExtWall,    !- Construction Name
    Block Poly_87_Residential_3 Storey 18,    !- Zone Name
    ,                         !- Space Name
    Outdoors,                 !- Outside Boundary Condition
    ,                         !- Outside Boundary Condition Object
    SunExposed,               !- Sun Exposure
    WindExposed,              !- Wind Exposure
    autocalculate,            !- View Factor to Ground
    autocalculate,            !- Number of Vertices
    47.01996569457697,        !- Vertex 1 Xcoordinate
    0,                        !- Vertex 1 Ycoordinate
    57,                       !- Vertex 1 Zcoordinate
    47.01996569457697,        !- Vertex 2 Xcoordinate
    0,                        !- Vertex 2 Ycoordinate
    54,                       !- Vertex 2 Zcoordinate
    47.17720378719969,        !- Vertex 3 Xcoordinate
    4.654353759717196,        !- Vertex 3 Ycoordinate
    54,                       !- Vertex 3 Zcoordinate
    47.17720378719969,        !- Vertex 4 Xcoordinate
    4.654353759717196,        !- Vertex 4 Ycoordinate
    57;                       !- Vertex 4 Zcoordinate

BUILDINGSURFACE:DETAILED,
    Block Poly_87_Residential_3 Storey 18 Wall 0007,    !- Name
    Wall,                     !- Surface Type
    HSCWZ_Residential_2005_ExtWall,    !- Construction Name
    Block Poly_87_Residential_3 Storey 18,    !- Zone Name
    ,                         !- Space Name
    Outdoors,                 !- Outside Boundary Condition
    ,                         !- Outside Boundary Condition Object
    SunExposed,               !- Sun Exposure
    WindExposed,              !- Wind Exposure
    autocalculate,            !- View Factor to Ground
    autocalculate,            !- Number of Vertices
    47.17720378719969,        !- Vertex 1 Xcoordinate
    4.654353759717196,        !- Vertex 1 Ycoordinate
    57,                       !- Vertex 1 Zcoordinate
    47.17720378719969,        !- Vertex 2 Xcoordinate
    4.654353759717196,        !- Vertex 2 Ycoordinate
    54,                       !- Vertex 2 Zcoordinate
    56.211964038957376,       !- Vertex 3 Xcoordinate
    4.422939342446625,        !- Vertex 3 Ycoordinate
    54,                       !- Vertex 3 Zcoordinate
    56.211964038957376,       !- Vertex 4 Xcoordinate
    4.422939342446625,        !- Vertex 4 Ycoordinate
    57;                       !- Vertex 4 Zcoordinate

BUILDINGSURFACE:DETAILED,
    Block Poly_87_Residential_3 Storey 18 Wall 0008,    !- Name
    Wall,                     !- Surface Type
    HSCWZ_Residential_2005_ExtWall,    !- Construction Name
    Block Poly_87_Residential_3 Storey 18,    !- Zone Name
    ,                         !- Space Name
    Outdoors,                 !- Outside Boundary Condition
    ,                         !- Outside Boundary Condition Object
    SunExposed,               !- Sun Exposure
    WindExposed,              !- Wind Exposure
    autocalculate,            !- View Factor to Ground
    autocalculate,            !- Number of Vertices
    56.211964038957376,       !- Vertex 1 Xcoordinate
    4.422939342446625,        !- Vertex 1 Ycoordinate
    57,                       !- Vertex 1 Zcoordinate
    56.211964038957376,       !- Vertex 2 Xcoordinate
    4.422939342446625,        !- Vertex 2 Ycoordinate
    54,                       !- Vertex 2 Zcoordinate
    56.239598526794,          !- Vertex 3 Xcoordinate
    13.62460599699989,        !- Vertex 3 Ycoordinate
    54,                       !- Vertex 3 Zcoordinate
    56.239598526794,          !- Vertex 4 Xcoordinate
    13.62460599699989,        !- Vertex 4 Ycoordinate
    57;                       !- Vertex 4 Zcoordinate

BUILDINGSURFACE:DETAILED,
    Block Poly_87_Residential_3 Storey 18 Wall 0009,    !- Name
    Wall,                     !- Surface Type
    HSCWZ_Residential_2005_ExtWall,    !- Construction Name
    Block Poly_87_Residential_3 Storey 18,    !- Zone Name
    ,                         !- Space Name
    Outdoors,                 !- Outside Boundary Condition
    ,                         !- Outside Boundary Condition Object
    SunExposed,               !- Sun Exposure
    WindExposed,              !- Wind Exposure
    autocalculate,            !- View Factor to Ground
    autocalculate,            !- Number of Vertices
    56.239598526794,          !- Vertex 1 Xcoordinate
    13.62460599699989,        !- Vertex 1 Ycoordinate
    57,                       !- Vertex 1 Zcoordinate
    56.239598526794,          !- Vertex 2 Xcoordinate
    13.62460599699989,        !- Vertex 2 Ycoordinate
    54,                       !- Vertex 2 Zcoordinate
    0.1228021571296267,       !- Vertex 3 Xcoordinate
    14.595210153609514,       !- Vertex 3 Ycoordinate
    54,                       !- Vertex 3 Zcoordinate
    0.1228021571296267,       !- Vertex 4 Xcoordinate
    14.595210153609514,       !- Vertex 4 Ycoordinate
    57;                       !- Vertex 4 Zcoordinate

BUILDINGSURFACE:DETAILED,
    Block Poly_87_Residential_3 Storey 18 Wall 0010,    !- Name
    Wall,                     !- Surface Type
    HSCWZ_Residential_2005_ExtWall,    !- Construction Name
    Block Poly_87_Residential_3 Storey 18,    !- Zone Name
    ,                         !- Space Name
    Outdoors,                 !- Outside Boundary Condition
    ,                         !- Outside Boundary Condition Object
    SunExposed,               !- Sun Exposure
    WindExposed,              !- Wind Exposure
    autocalculate,            !- View Factor to Ground
    autocalculate,            !- Number of Vertices
    0.1228021571296267,       !- Vertex 1 Xcoordinate
    14.595210153609514,       !- Vertex 1 Ycoordinate
    57,                       !- Vertex 1 Zcoordinate
    0.1228021571296267,       !- Vertex 2 Xcoordinate
    14.595210153609514,       !- Vertex 2 Ycoordinate
    54,                       !- Vertex 2 Zcoordinate
    0,                        !- Vertex 3 Xcoordinate
    5.394811453763396,        !- Vertex 3 Ycoordinate
    54,                       !- Vertex 3 Zcoordinate
    0,                        !- Vertex 4 Xcoordinate
    5.394811453763396,        !- Vertex 4 Ycoordinate
    57;                       !- Vertex 4 Zcoordinate

BUILDINGSURFACE:DETAILED,
    Block Poly_87_Residential_3 Storey 18 Wall 0011,    !- Name
    Wall,                     !- Surface Type
    HSCWZ_Residential_2005_ExtWall,    !- Construction Name
    Block Poly_87_Residential_3 Storey 18,    !- Zone Name
    ,                         !- Space Name
    Outdoors,                 !- Outside Boundary Condition
    ,                         !- Outside Boundary Condition Object
    SunExposed,               !- Sun Exposure
    WindExposed,              !- Wind Exposure
    autocalculate,            !- View Factor to Ground
    autocalculate,            !- Number of Vertices
    0,                        !- Vertex 1 Xcoordinate
    5.394811453763396,        !- Vertex 1 Ycoordinate
    57,                       !- Vertex 1 Zcoordinate
    0,                        !- Vertex 2 Xcoordinate
    5.394811453763396,        !- Vertex 2 Ycoordinate
    54,                       !- Vertex 2 Zcoordinate
    8.370411821699236,        !- Vertex 3 Xcoordinate
    5.283091011922807,        !- Vertex 3 Ycoordinate
    54,                       !- Vertex 3 Zcoordinate
    8.370411821699236,        !- Vertex 4 Xcoordinate
    5.283091011922807,        !- Vertex 4 Ycoordinate
    57;                       !- Vertex 4 Zcoordinate

BUILDINGSURFACE:DETAILED,
    Block Poly_87_Residential_3 Storey 18 Wall 0012,    !- Name
    Wall,                     !- Surface Type
    HSCWZ_Residential_2005_ExtWall,    !- Construction Name
    Block Poly_87_Residential_3 Storey 18,    !- Zone Name
    ,                         !- Space Name
    Outdoors,                 !- Outside Boundary Condition
    ,                         !- Outside Boundary Condition Object
    SunExposed,               !- Sun Exposure
    WindExposed,              !- Wind Exposure
    autocalculate,            !- View Factor to Ground
    autocalculate,            !- Number of Vertices
    8.370411821699236,        !- Vertex 1 Xcoordinate
    5.283091011922807,        !- Vertex 1 Ycoordinate
    57,                       !- Vertex 1 Zcoordinate
    8.370411821699236,        !- Vertex 2 Xcoordinate
    5.283091011922807,        !- Vertex 2 Ycoordinate
    54,                       !- Vertex 2 Zcoordinate
    8.308274807932321,        !- Vertex 3 Xcoordinate
    0.6274677002802491,       !- Vertex 3 Ycoordinate
    54,                       !- Vertex 3 Zcoordinate
    8.308274807932321,        !- Vertex 4 Xcoordinate
    0.6274677002802491,       !- Vertex 4 Ycoordinate
    57;                       !- Vertex 4 Zcoordinate

BUILDINGSURFACE:DETAILED,
    Block Poly_87_Residential_3 Storey 19 Wall 0001,    !- Name
    Wall,                     !- Surface Type
    HSCWZ_Residential_2005_ExtWall,    !- Construction Name
    Block Poly_87_Residential_3 Storey 19,    !- Zone Name
    ,                         !- Space Name
    Outdoors,                 !- Outside Boundary Condition
    ,                         !- Outside Boundary Condition Object
    SunExposed,               !- Sun Exposure
    WindExposed,              !- Wind Exposure
    autocalculate,            !- View Factor to Ground
    autocalculate,            !- Number of Vertices
    8.308274807932321,        !- Vertex 1 Xcoordinate
    0.6274677002802491,       !- Vertex 1 Ycoordinate
    60,                       !- Vertex 1 Zcoordinate
    8.308274807932321,        !- Vertex 2 Xcoordinate
    0.6274677002802491,       !- Vertex 2 Ycoordinate
    57,                       !- Vertex 2 Zcoordinate
    18.9615307400818,         !- Vertex 3 Xcoordinate
    0.4852878404781222,       !- Vertex 3 Ycoordinate
    57,                       !- Vertex 3 Zcoordinate
    18.9615307400818,         !- Vertex 4 Xcoordinate
    0.4852878404781222,       !- Vertex 4 Ycoordinate
    60;                       !- Vertex 4 Zcoordinate

BUILDINGSURFACE:DETAILED,
    Block Poly_87_Residential_3 Storey 19 Wall 0002,    !- Name
    Wall,                     !- Surface Type
    HSCWZ_Residential_2005_ExtWall,    !- Construction Name
    Block Poly_87_Residential_3 Storey 19,    !- Zone Name
    ,                         !- Space Name
    Outdoors,                 !- Outside Boundary Condition
    ,                         !- Outside Boundary Condition Object
    SunExposed,               !- Sun Exposure
    WindExposed,              !- Wind Exposure
    autocalculate,            !- View Factor to Ground
    autocalculate,            !- Number of Vertices
    18.9615307400818,         !- Vertex 1 Xcoordinate
    0.4852878404781222,       !- Vertex 1 Ycoordinate
    60,                       !- Vertex 1 Zcoordinate
    18.9615307400818,         !- Vertex 2 Xcoordinate
    0.4852878404781222,       !- Vertex 2 Ycoordinate
    57,                       !- Vertex 2 Zcoordinate
    19.1173019867274,         !- Vertex 3 Xcoordinate
    5.028793456964195,        !- Vertex 3 Ycoordinate
    57,                       !- Vertex 3 Zcoordinate
    19.1173019867274,         !- Vertex 4 Xcoordinate
    5.028793456964195,        !- Vertex 4 Ycoordinate
    60;                       !- Vertex 4 Zcoordinate

BUILDINGSURFACE:DETAILED,
    Block Poly_87_Residential_3 Storey 19 Wall 0003,    !- Name
    Wall,                     !- Surface Type
    HSCWZ_Residential_2005_ExtWall,    !- Construction Name
    Block Poly_87_Residential_3 Storey 19,    !- Zone Name
    ,                         !- Space Name
    Outdoors,                 !- Outside Boundary Condition
    ,                         !- Outside Boundary Condition Object
    SunExposed,               !- Sun Exposure
    WindExposed,              !- Wind Exposure
    autocalculate,            !- View Factor to Ground
    autocalculate,            !- Number of Vertices
    19.1173019867274,         !- Vertex 1 Xcoordinate
    5.028793456964195,        !- Vertex 1 Ycoordinate
    60,                       !- Vertex 1 Zcoordinate
    19.1173019867274,         !- Vertex 2 Xcoordinate
    5.028793456964195,        !- Vertex 2 Ycoordinate
    57,                       !- Vertex 2 Zcoordinate
    36.42883482348407,        !- Vertex 3 Xcoordinate
    4.79777431068942,         !- Vertex 3 Ycoordinate
    57,                       !- Vertex 3 Zcoordinate
    36.42883482348407,        !- Vertex 4 Xcoordinate
    4.79777431068942,         !- Vertex 4 Ycoordinate
    60;                       !- Vertex 4 Zcoordinate

BUILDINGSURFACE:DETAILED,
    Block Poly_87_Residential_3 Storey 19 Wall 0004,    !- Name
    Wall,                     !- Surface Type
    HSCWZ_Residential_2005_ExtWall,    !- Construction Name
    Block Poly_87_Residential_3 Storey 19,    !- Zone Name
    ,                         !- Space Name
    Outdoors,                 !- Outside Boundary Condition
    ,                         !- Outside Boundary Condition Object
    SunExposed,               !- Sun Exposure
    WindExposed,              !- Wind Exposure
    autocalculate,            !- View Factor to Ground
    autocalculate,            !- Number of Vertices
    36.42883482348407,        !- Vertex 1 Xcoordinate
    4.79777431068942,         !- Vertex 1 Ycoordinate
    60,                       !- Vertex 1 Zcoordinate
    36.42883482348407,        !- Vertex 2 Xcoordinate
    4.79777431068942,         !- Vertex 2 Ycoordinate
    57,                       !- Vertex 2 Zcoordinate
    36.36671029863646,        !- Vertex 3 Xcoordinate
    0.1421512835659086,       !- Vertex 3 Ycoordinate
    57,                       !- Vertex 3 Zcoordinate
    36.36671029863646,        !- Vertex 4 Xcoordinate
    0.1421512835659086,       !- Vertex 4 Ycoordinate
    60;                       !- Vertex 4 Zcoordinate

BUILDINGSURFACE:DETAILED,
    Block Poly_87_Residential_3 Storey 19 Wall 0005,    !- Name
    Wall,                     !- Surface Type
    HSCWZ_Residential_2005_ExtWall,    !- Construction Name
    Block Poly_87_Residential_3 Storey 19,    !- Zone Name
    ,                         !- Space Name
    Outdoors,                 !- Outside Boundary Condition
    ,                         !- Outside Boundary Condition Object
    SunExposed,               !- Sun Exposure
    WindExposed,              !- Wind Exposure
    autocalculate,            !- View Factor to Ground
    autocalculate,            !- Number of Vertices
    36.36671029863646,        !- Vertex 1 Xcoordinate
    0.1421512835659086,       !- Vertex 1 Ycoordinate
    60,                       !- Vertex 1 Zcoordinate
    36.36671029863646,        !- Vertex 2 Xcoordinate
    0.1421512835659086,       !- Vertex 2 Ycoordinate
    57,                       !- Vertex 2 Zcoordinate
    47.01996569457697,        !- Vertex 3 Xcoordinate
    0,                        !- Vertex 3 Ycoordinate
    57,                       !- Vertex 3 Zcoordinate
    47.01996569457697,        !- Vertex 4 Xcoordinate
    0,                        !- Vertex 4 Ycoordinate
    60;                       !- Vertex 4 Zcoordinate

BUILDINGSURFACE:DETAILED,
    Block Poly_87_Residential_3 Storey 19 Wall 0006,    !- Name
    Wall,                     !- Surface Type
    HSCWZ_Residential_2005_ExtWall,    !- Construction Name
    Block Poly_87_Residential_3 Storey 19,    !- Zone Name
    ,                         !- Space Name
    Outdoors,                 !- Outside Boundary Condition
    ,                         !- Outside Boundary Condition Object
    SunExposed,               !- Sun Exposure
    WindExposed,              !- Wind Exposure
    autocalculate,            !- View Factor to Ground
    autocalculate,            !- Number of Vertices
    47.01996569457697,        !- Vertex 1 Xcoordinate
    0,                        !- Vertex 1 Ycoordinate
    60,                       !- Vertex 1 Zcoordinate
    47.01996569457697,        !- Vertex 2 Xcoordinate
    0,                        !- Vertex 2 Ycoordinate
    57,                       !- Vertex 2 Zcoordinate
    47.17720378719969,        !- Vertex 3 Xcoordinate
    4.654353759717196,        !- Vertex 3 Ycoordinate
    57,                       !- Vertex 3 Zcoordinate
    47.17720378719969,        !- Vertex 4 Xcoordinate
    4.654353759717196,        !- Vertex 4 Ycoordinate
    60;                       !- Vertex 4 Zcoordinate

BUILDINGSURFACE:DETAILED,
    Block Poly_87_Residential_3 Storey 19 Wall 0007,    !- Name
    Wall,                     !- Surface Type
    HSCWZ_Residential_2005_ExtWall,    !- Construction Name
    Block Poly_87_Residential_3 Storey 19,    !- Zone Name
    ,                         !- Space Name
    Outdoors,                 !- Outside Boundary Condition
    ,                         !- Outside Boundary Condition Object
    SunExposed,               !- Sun Exposure
    WindExposed,              !- Wind Exposure
    autocalculate,            !- View Factor to Ground
    autocalculate,            !- Number of Vertices
    47.17720378719969,        !- Vertex 1 Xcoordinate
    4.654353759717196,        !- Vertex 1 Ycoordinate
    60,                       !- Vertex 1 Zcoordinate
    47.17720378719969,        !- Vertex 2 Xcoordinate
    4.654353759717196,        !- Vertex 2 Ycoordinate
    57,                       !- Vertex 2 Zcoordinate
    56.211964038957376,       !- Vertex 3 Xcoordinate
    4.422939342446625,        !- Vertex 3 Ycoordinate
    57,                       !- Vertex 3 Zcoordinate
    56.211964038957376,       !- Vertex 4 Xcoordinate
    4.422939342446625,        !- Vertex 4 Ycoordinate
    60;                       !- Vertex 4 Zcoordinate

BUILDINGSURFACE:DETAILED,
    Block Poly_87_Residential_3 Storey 19 Wall 0008,    !- Name
    Wall,                     !- Surface Type
    HSCWZ_Residential_2005_ExtWall,    !- Construction Name
    Block Poly_87_Residential_3 Storey 19,    !- Zone Name
    ,                         !- Space Name
    Outdoors,                 !- Outside Boundary Condition
    ,                         !- Outside Boundary Condition Object
    SunExposed,               !- Sun Exposure
    WindExposed,              !- Wind Exposure
    autocalculate,            !- View Factor to Ground
    autocalculate,            !- Number of Vertices
    56.211964038957376,       !- Vertex 1 Xcoordinate
    4.422939342446625,        !- Vertex 1 Ycoordinate
    60,                       !- Vertex 1 Zcoordinate
    56.211964038957376,       !- Vertex 2 Xcoordinate
    4.422939342446625,        !- Vertex 2 Ycoordinate
    57,                       !- Vertex 2 Zcoordinate
    56.239598526794,          !- Vertex 3 Xcoordinate
    13.62460599699989,        !- Vertex 3 Ycoordinate
    57,                       !- Vertex 3 Zcoordinate
    56.239598526794,          !- Vertex 4 Xcoordinate
    13.62460599699989,        !- Vertex 4 Ycoordinate
    60;                       !- Vertex 4 Zcoordinate

BUILDINGSURFACE:DETAILED,
    Block Poly_87_Residential_3 Storey 19 Wall 0009,    !- Name
    Wall,                     !- Surface Type
    HSCWZ_Residential_2005_ExtWall,    !- Construction Name
    Block Poly_87_Residential_3 Storey 19,    !- Zone Name
    ,                         !- Space Name
    Outdoors,                 !- Outside Boundary Condition
    ,                         !- Outside Boundary Condition Object
    SunExposed,               !- Sun Exposure
    WindExposed,              !- Wind Exposure
    autocalculate,            !- View Factor to Ground
    autocalculate,            !- Number of Vertices
    56.239598526794,          !- Vertex 1 Xcoordinate
    13.62460599699989,        !- Vertex 1 Ycoordinate
    60,                       !- Vertex 1 Zcoordinate
    56.239598526794,          !- Vertex 2 Xcoordinate
    13.62460599699989,        !- Vertex 2 Ycoordinate
    57,                       !- Vertex 2 Zcoordinate
    0.1228021571296267,       !- Vertex 3 Xcoordinate
    14.595210153609514,       !- Vertex 3 Ycoordinate
    57,                       !- Vertex 3 Zcoordinate
    0.1228021571296267,       !- Vertex 4 Xcoordinate
    14.595210153609514,       !- Vertex 4 Ycoordinate
    60;                       !- Vertex 4 Zcoordinate

BUILDINGSURFACE:DETAILED,
    Block Poly_87_Residential_3 Storey 19 Wall 0010,    !- Name
    Wall,                     !- Surface Type
    HSCWZ_Residential_2005_ExtWall,    !- Construction Name
    Block Poly_87_Residential_3 Storey 19,    !- Zone Name
    ,                         !- Space Name
    Outdoors,                 !- Outside Boundary Condition
    ,                         !- Outside Boundary Condition Object
    SunExposed,               !- Sun Exposure
    WindExposed,              !- Wind Exposure
    autocalculate,            !- View Factor to Ground
    autocalculate,            !- Number of Vertices
    0.1228021571296267,       !- Vertex 1 Xcoordinate
    14.595210153609514,       !- Vertex 1 Ycoordinate
    60,                       !- Vertex 1 Zcoordinate
    0.1228021571296267,       !- Vertex 2 Xcoordinate
    14.595210153609514,       !- Vertex 2 Ycoordinate
    57,                       !- Vertex 2 Zcoordinate
    0,                        !- Vertex 3 Xcoordinate
    5.394811453763396,        !- Vertex 3 Ycoordinate
    57,                       !- Vertex 3 Zcoordinate
    0,                        !- Vertex 4 Xcoordinate
    5.394811453763396,        !- Vertex 4 Ycoordinate
    60;                       !- Vertex 4 Zcoordinate

BUILDINGSURFACE:DETAILED,
    Block Poly_87_Residential_3 Storey 19 Wall 0011,    !- Name
    Wall,                     !- Surface Type
    HSCWZ_Residential_2005_ExtWall,    !- Construction Name
    Block Poly_87_Residential_3 Storey 19,    !- Zone Name
    ,                         !- Space Name
    Outdoors,                 !- Outside Boundary Condition
    ,                         !- Outside Boundary Condition Object
    SunExposed,               !- Sun Exposure
    WindExposed,              !- Wind Exposure
    autocalculate,            !- View Factor to Ground
    autocalculate,            !- Number of Vertices
    0,                        !- Vertex 1 Xcoordinate
    5.394811453763396,        !- Vertex 1 Ycoordinate
    60,                       !- Vertex 1 Zcoordinate
    0,                        !- Vertex 2 Xcoordinate
    5.394811453763396,        !- Vertex 2 Ycoordinate
    57,                       !- Vertex 2 Zcoordinate
    8.370411821699236,        !- Vertex 3 Xcoordinate
    5.283091011922807,        !- Vertex 3 Ycoordinate
    57,                       !- Vertex 3 Zcoordinate
    8.370411821699236,        !- Vertex 4 Xcoordinate
    5.283091011922807,        !- Vertex 4 Ycoordinate
    60;                       !- Vertex 4 Zcoordinate

BUILDINGSURFACE:DETAILED,
    Block Poly_87_Residential_3 Storey 19 Wall 0012,    !- Name
    Wall,                     !- Surface Type
    HSCWZ_Residential_2005_ExtWall,    !- Construction Name
    Block Poly_87_Residential_3 Storey 19,    !- Zone Name
    ,                         !- Space Name
    Outdoors,                 !- Outside Boundary Condition
    ,                         !- Outside Boundary Condition Object
    SunExposed,               !- Sun Exposure
    WindExposed,              !- Wind Exposure
    autocalculate,            !- View Factor to Ground
    autocalculate,            !- Number of Vertices
    8.370411821699236,        !- Vertex 1 Xcoordinate
    5.283091011922807,        !- Vertex 1 Ycoordinate
    60,                       !- Vertex 1 Zcoordinate
    8.370411821699236,        !- Vertex 2 Xcoordinate
    5.283091011922807,        !- Vertex 2 Ycoordinate
    57,                       !- Vertex 2 Zcoordinate
    8.308274807932321,        !- Vertex 3 Xcoordinate
    0.6274677002802491,       !- Vertex 3 Ycoordinate
    57,                       !- Vertex 3 Zcoordinate
    8.308274807932321,        !- Vertex 4 Xcoordinate
    0.6274677002802491,       !- Vertex 4 Ycoordinate
    60;                       !- Vertex 4 Zcoordinate

BUILDINGSURFACE:DETAILED,
    Block Poly_87_Residential_3 Storey 20 Wall 0001,    !- Name
    Wall,                     !- Surface Type
    HSCWZ_Residential_2005_ExtWall,    !- Construction Name
    Block Poly_87_Residential_3 Storey 20,    !- Zone Name
    ,                         !- Space Name
    Outdoors,                 !- Outside Boundary Condition
    ,                         !- Outside Boundary Condition Object
    SunExposed,               !- Sun Exposure
    WindExposed,              !- Wind Exposure
    autocalculate,            !- View Factor to Ground
    autocalculate,            !- Number of Vertices
    8.308274807932321,        !- Vertex 1 Xcoordinate
    0.6274677002802491,       !- Vertex 1 Ycoordinate
    63,                       !- Vertex 1 Zcoordinate
    8.308274807932321,        !- Vertex 2 Xcoordinate
    0.6274677002802491,       !- Vertex 2 Ycoordinate
    60,                       !- Vertex 2 Zcoordinate
    18.9615307400818,         !- Vertex 3 Xcoordinate
    0.4852878404781222,       !- Vertex 3 Ycoordinate
    60,                       !- Vertex 3 Zcoordinate
    18.9615307400818,         !- Vertex 4 Xcoordinate
    0.4852878404781222,       !- Vertex 4 Ycoordinate
    63;                       !- Vertex 4 Zcoordinate

BUILDINGSURFACE:DETAILED,
    Block Poly_87_Residential_3 Storey 20 Wall 0002,    !- Name
    Wall,                     !- Surface Type
    HSCWZ_Residential_2005_ExtWall,    !- Construction Name
    Block Poly_87_Residential_3 Storey 20,    !- Zone Name
    ,                         !- Space Name
    Outdoors,                 !- Outside Boundary Condition
    ,                         !- Outside Boundary Condition Object
    SunExposed,               !- Sun Exposure
    WindExposed,              !- Wind Exposure
    autocalculate,            !- View Factor to Ground
    autocalculate,            !- Number of Vertices
    18.9615307400818,         !- Vertex 1 Xcoordinate
    0.4852878404781222,       !- Vertex 1 Ycoordinate
    63,                       !- Vertex 1 Zcoordinate
    18.9615307400818,         !- Vertex 2 Xcoordinate
    0.4852878404781222,       !- Vertex 2 Ycoordinate
    60,                       !- Vertex 2 Zcoordinate
    19.1173019867274,         !- Vertex 3 Xcoordinate
    5.028793456964195,        !- Vertex 3 Ycoordinate
    60,                       !- Vertex 3 Zcoordinate
    19.1173019867274,         !- Vertex 4 Xcoordinate
    5.028793456964195,        !- Vertex 4 Ycoordinate
    63;                       !- Vertex 4 Zcoordinate

BUILDINGSURFACE:DETAILED,
    Block Poly_87_Residential_3 Storey 20 Wall 0003,    !- Name
    Wall,                     !- Surface Type
    HSCWZ_Residential_2005_ExtWall,    !- Construction Name
    Block Poly_87_Residential_3 Storey 20,    !- Zone Name
    ,                         !- Space Name
    Outdoors,                 !- Outside Boundary Condition
    ,                         !- Outside Boundary Condition Object
    SunExposed,               !- Sun Exposure
    WindExposed,              !- Wind Exposure
    autocalculate,            !- View Factor to Ground
    autocalculate,            !- Number of Vertices
    19.1173019867274,         !- Vertex 1 Xcoordinate
    5.028793456964195,        !- Vertex 1 Ycoordinate
    63,                       !- Vertex 1 Zcoordinate
    19.1173019867274,         !- Vertex 2 Xcoordinate
    5.028793456964195,        !- Vertex 2 Ycoordinate
    60,                       !- Vertex 2 Zcoordinate
    36.42883482348407,        !- Vertex 3 Xcoordinate
    4.79777431068942,         !- Vertex 3 Ycoordinate
    60,                       !- Vertex 3 Zcoordinate
    36.42883482348407,        !- Vertex 4 Xcoordinate
    4.79777431068942,         !- Vertex 4 Ycoordinate
    63;                       !- Vertex 4 Zcoordinate

BUILDINGSURFACE:DETAILED,
    Block Poly_87_Residential_3 Storey 20 Wall 0004,    !- Name
    Wall,                     !- Surface Type
    HSCWZ_Residential_2005_ExtWall,    !- Construction Name
    Block Poly_87_Residential_3 Storey 20,    !- Zone Name
    ,                         !- Space Name
    Outdoors,                 !- Outside Boundary Condition
    ,                         !- Outside Boundary Condition Object
    SunExposed,               !- Sun Exposure
    WindExposed,              !- Wind Exposure
    autocalculate,            !- View Factor to Ground
    autocalculate,            !- Number of Vertices
    36.42883482348407,        !- Vertex 1 Xcoordinate
    4.79777431068942,         !- Vertex 1 Ycoordinate
    63,                       !- Vertex 1 Zcoordinate
    36.42883482348407,        !- Vertex 2 Xcoordinate
    4.79777431068942,         !- Vertex 2 Ycoordinate
    60,                       !- Vertex 2 Zcoordinate
    36.36671029863646,        !- Vertex 3 Xcoordinate
    0.1421512835659086,       !- Vertex 3 Ycoordinate
    60,                       !- Vertex 3 Zcoordinate
    36.36671029863646,        !- Vertex 4 Xcoordinate
    0.1421512835659086,       !- Vertex 4 Ycoordinate
    63;                       !- Vertex 4 Zcoordinate

BUILDINGSURFACE:DETAILED,
    Block Poly_87_Residential_3 Storey 20 Wall 0005,    !- Name
    Wall,                     !- Surface Type
    HSCWZ_Residential_2005_ExtWall,    !- Construction Name
    Block Poly_87_Residential_3 Storey 20,    !- Zone Name
    ,                         !- Space Name
    Outdoors,                 !- Outside Boundary Condition
    ,                         !- Outside Boundary Condition Object
    SunExposed,               !- Sun Exposure
    WindExposed,              !- Wind Exposure
    autocalculate,            !- View Factor to Ground
    autocalculate,            !- Number of Vertices
    36.36671029863646,        !- Vertex 1 Xcoordinate
    0.1421512835659086,       !- Vertex 1 Ycoordinate
    63,                       !- Vertex 1 Zcoordinate
    36.36671029863646,        !- Vertex 2 Xcoordinate
    0.1421512835659086,       !- Vertex 2 Ycoordinate
    60,                       !- Vertex 2 Zcoordinate
    47.01996569457697,        !- Vertex 3 Xcoordinate
    0,                        !- Vertex 3 Ycoordinate
    60,                       !- Vertex 3 Zcoordinate
    47.01996569457697,        !- Vertex 4 Xcoordinate
    0,                        !- Vertex 4 Ycoordinate
    63;                       !- Vertex 4 Zcoordinate

BUILDINGSURFACE:DETAILED,
    Block Poly_87_Residential_3 Storey 20 Wall 0006,    !- Name
    Wall,                     !- Surface Type
    HSCWZ_Residential_2005_ExtWall,    !- Construction Name
    Block Poly_87_Residential_3 Storey 20,    !- Zone Name
    ,                         !- Space Name
    Outdoors,                 !- Outside Boundary Condition
    ,                         !- Outside Boundary Condition Object
    SunExposed,               !- Sun Exposure
    WindExposed,              !- Wind Exposure
    autocalculate,            !- View Factor to Ground
    autocalculate,            !- Number of Vertices
    47.01996569457697,        !- Vertex 1 Xcoordinate
    0,                        !- Vertex 1 Ycoordinate
    63,                       !- Vertex 1 Zcoordinate
    47.01996569457697,        !- Vertex 2 Xcoordinate
    0,                        !- Vertex 2 Ycoordinate
    60,                       !- Vertex 2 Zcoordinate
    47.17720378719969,        !- Vertex 3 Xcoordinate
    4.654353759717196,        !- Vertex 3 Ycoordinate
    60,                       !- Vertex 3 Zcoordinate
    47.17720378719969,        !- Vertex 4 Xcoordinate
    4.654353759717196,        !- Vertex 4 Ycoordinate
    63;                       !- Vertex 4 Zcoordinate

BUILDINGSURFACE:DETAILED,
    Block Poly_87_Residential_3 Storey 20 Wall 0007,    !- Name
    Wall,                     !- Surface Type
    HSCWZ_Residential_2005_ExtWall,    !- Construction Name
    Block Poly_87_Residential_3 Storey 20,    !- Zone Name
    ,                         !- Space Name
    Outdoors,                 !- Outside Boundary Condition
    ,                         !- Outside Boundary Condition Object
    SunExposed,               !- Sun Exposure
    WindExposed,              !- Wind Exposure
    autocalculate,            !- View Factor to Ground
    autocalculate,            !- Number of Vertices
    47.17720378719969,        !- Vertex 1 Xcoordinate
    4.654353759717196,        !- Vertex 1 Ycoordinate
    63,                       !- Vertex 1 Zcoordinate
    47.17720378719969,        !- Vertex 2 Xcoordinate
    4.654353759717196,        !- Vertex 2 Ycoordinate
    60,                       !- Vertex 2 Zcoordinate
    56.211964038957376,       !- Vertex 3 Xcoordinate
    4.422939342446625,        !- Vertex 3 Ycoordinate
    60,                       !- Vertex 3 Zcoordinate
    56.211964038957376,       !- Vertex 4 Xcoordinate
    4.422939342446625,        !- Vertex 4 Ycoordinate
    63;                       !- Vertex 4 Zcoordinate

BUILDINGSURFACE:DETAILED,
    Block Poly_87_Residential_3 Storey 20 Wall 0008,    !- Name
    Wall,                     !- Surface Type
    HSCWZ_Residential_2005_ExtWall,    !- Construction Name
    Block Poly_87_Residential_3 Storey 20,    !- Zone Name
    ,                         !- Space Name
    Outdoors,                 !- Outside Boundary Condition
    ,                         !- Outside Boundary Condition Object
    SunExposed,               !- Sun Exposure
    WindExposed,              !- Wind Exposure
    autocalculate,            !- View Factor to Ground
    autocalculate,            !- Number of Vertices
    56.211964038957376,       !- Vertex 1 Xcoordinate
    4.422939342446625,        !- Vertex 1 Ycoordinate
    63,                       !- Vertex 1 Zcoordinate
    56.211964038957376,       !- Vertex 2 Xcoordinate
    4.422939342446625,        !- Vertex 2 Ycoordinate
    60,                       !- Vertex 2 Zcoordinate
    56.239598526794,          !- Vertex 3 Xcoordinate
    13.62460599699989,        !- Vertex 3 Ycoordinate
    60,                       !- Vertex 3 Zcoordinate
    56.239598526794,          !- Vertex 4 Xcoordinate
    13.62460599699989,        !- Vertex 4 Ycoordinate
    63;                       !- Vertex 4 Zcoordinate

BUILDINGSURFACE:DETAILED,
    Block Poly_87_Residential_3 Storey 20 Wall 0009,    !- Name
    Wall,                     !- Surface Type
    HSCWZ_Residential_2005_ExtWall,    !- Construction Name
    Block Poly_87_Residential_3 Storey 20,    !- Zone Name
    ,                         !- Space Name
    Outdoors,                 !- Outside Boundary Condition
    ,                         !- Outside Boundary Condition Object
    SunExposed,               !- Sun Exposure
    WindExposed,              !- Wind Exposure
    autocalculate,            !- View Factor to Ground
    autocalculate,            !- Number of Vertices
    56.239598526794,          !- Vertex 1 Xcoordinate
    13.62460599699989,        !- Vertex 1 Ycoordinate
    63,                       !- Vertex 1 Zcoordinate
    56.239598526794,          !- Vertex 2 Xcoordinate
    13.62460599699989,        !- Vertex 2 Ycoordinate
    60,                       !- Vertex 2 Zcoordinate
    0.1228021571296267,       !- Vertex 3 Xcoordinate
    14.595210153609514,       !- Vertex 3 Ycoordinate
    60,                       !- Vertex 3 Zcoordinate
    0.1228021571296267,       !- Vertex 4 Xcoordinate
    14.595210153609514,       !- Vertex 4 Ycoordinate
    63;                       !- Vertex 4 Zcoordinate

BUILDINGSURFACE:DETAILED,
    Block Poly_87_Residential_3 Storey 20 Wall 0010,    !- Name
    Wall,                     !- Surface Type
    HSCWZ_Residential_2005_ExtWall,    !- Construction Name
    Block Poly_87_Residential_3 Storey 20,    !- Zone Name
    ,                         !- Space Name
    Outdoors,                 !- Outside Boundary Condition
    ,                         !- Outside Boundary Condition Object
    SunExposed,               !- Sun Exposure
    WindExposed,              !- Wind Exposure
    autocalculate,            !- View Factor to Ground
    autocalculate,            !- Number of Vertices
    0.1228021571296267,       !- Vertex 1 Xcoordinate
    14.595210153609514,       !- Vertex 1 Ycoordinate
    63,                       !- Vertex 1 Zcoordinate
    0.1228021571296267,       !- Vertex 2 Xcoordinate
    14.595210153609514,       !- Vertex 2 Ycoordinate
    60,                       !- Vertex 2 Zcoordinate
    0,                        !- Vertex 3 Xcoordinate
    5.394811453763396,        !- Vertex 3 Ycoordinate
    60,                       !- Vertex 3 Zcoordinate
    0,                        !- Vertex 4 Xcoordinate
    5.394811453763396,        !- Vertex 4 Ycoordinate
    63;                       !- Vertex 4 Zcoordinate

BUILDINGSURFACE:DETAILED,
    Block Poly_87_Residential_3 Storey 20 Wall 0011,    !- Name
    Wall,                     !- Surface Type
    HSCWZ_Residential_2005_ExtWall,    !- Construction Name
    Block Poly_87_Residential_3 Storey 20,    !- Zone Name
    ,                         !- Space Name
    Outdoors,                 !- Outside Boundary Condition
    ,                         !- Outside Boundary Condition Object
    SunExposed,               !- Sun Exposure
    WindExposed,              !- Wind Exposure
    autocalculate,            !- View Factor to Ground
    autocalculate,            !- Number of Vertices
    0,                        !- Vertex 1 Xcoordinate
    5.394811453763396,        !- Vertex 1 Ycoordinate
    63,                       !- Vertex 1 Zcoordinate
    0,                        !- Vertex 2 Xcoordinate
    5.394811453763396,        !- Vertex 2 Ycoordinate
    60,                       !- Vertex 2 Zcoordinate
    8.370411821699236,        !- Vertex 3 Xcoordinate
    5.283091011922807,        !- Vertex 3 Ycoordinate
    60,                       !- Vertex 3 Zcoordinate
    8.370411821699236,        !- Vertex 4 Xcoordinate
    5.283091011922807,        !- Vertex 4 Ycoordinate
    63;                       !- Vertex 4 Zcoordinate

BUILDINGSURFACE:DETAILED,
    Block Poly_87_Residential_3 Storey 20 Wall 0012,    !- Name
    Wall,                     !- Surface Type
    HSCWZ_Residential_2005_ExtWall,    !- Construction Name
    Block Poly_87_Residential_3 Storey 20,    !- Zone Name
    ,                         !- Space Name
    Outdoors,                 !- Outside Boundary Condition
    ,                         !- Outside Boundary Condition Object
    SunExposed,               !- Sun Exposure
    WindExposed,              !- Wind Exposure
    autocalculate,            !- View Factor to Ground
    autocalculate,            !- Number of Vertices
    8.370411821699236,        !- Vertex 1 Xcoordinate
    5.283091011922807,        !- Vertex 1 Ycoordinate
    63,                       !- Vertex 1 Zcoordinate
    8.370411821699236,        !- Vertex 2 Xcoordinate
    5.283091011922807,        !- Vertex 2 Ycoordinate
    60,                       !- Vertex 2 Zcoordinate
    8.308274807932321,        !- Vertex 3 Xcoordinate
    0.6274677002802491,       !- Vertex 3 Ycoordinate
    60,                       !- Vertex 3 Zcoordinate
    8.308274807932321,        !- Vertex 4 Xcoordinate
    0.6274677002802491,       !- Vertex 4 Ycoordinate
    63;                       !- Vertex 4 Zcoordinate

BUILDINGSURFACE:DETAILED,
    Block Poly_87_Residential_3 Storey 21 Wall 0001,    !- Name
    Wall,                     !- Surface Type
    HSCWZ_Residential_2005_ExtWall,    !- Construction Name
    Block Poly_87_Residential_3 Storey 21,    !- Zone Name
    ,                         !- Space Name
    Outdoors,                 !- Outside Boundary Condition
    ,                         !- Outside Boundary Condition Object
    SunExposed,               !- Sun Exposure
    WindExposed,              !- Wind Exposure
    autocalculate,            !- View Factor to Ground
    autocalculate,            !- Number of Vertices
    8.308274807932321,        !- Vertex 1 Xcoordinate
    0.6274677002802491,       !- Vertex 1 Ycoordinate
    66,                       !- Vertex 1 Zcoordinate
    8.308274807932321,        !- Vertex 2 Xcoordinate
    0.6274677002802491,       !- Vertex 2 Ycoordinate
    63,                       !- Vertex 2 Zcoordinate
    18.9615307400818,         !- Vertex 3 Xcoordinate
    0.4852878404781222,       !- Vertex 3 Ycoordinate
    63,                       !- Vertex 3 Zcoordinate
    18.9615307400818,         !- Vertex 4 Xcoordinate
    0.4852878404781222,       !- Vertex 4 Ycoordinate
    66;                       !- Vertex 4 Zcoordinate

BUILDINGSURFACE:DETAILED,
    Block Poly_87_Residential_3 Storey 21 Wall 0002,    !- Name
    Wall,                     !- Surface Type
    HSCWZ_Residential_2005_ExtWall,    !- Construction Name
    Block Poly_87_Residential_3 Storey 21,    !- Zone Name
    ,                         !- Space Name
    Outdoors,                 !- Outside Boundary Condition
    ,                         !- Outside Boundary Condition Object
    SunExposed,               !- Sun Exposure
    WindExposed,              !- Wind Exposure
    autocalculate,            !- View Factor to Ground
    autocalculate,            !- Number of Vertices
    18.9615307400818,         !- Vertex 1 Xcoordinate
    0.4852878404781222,       !- Vertex 1 Ycoordinate
    66,                       !- Vertex 1 Zcoordinate
    18.9615307400818,         !- Vertex 2 Xcoordinate
    0.4852878404781222,       !- Vertex 2 Ycoordinate
    63,                       !- Vertex 2 Zcoordinate
    19.1173019867274,         !- Vertex 3 Xcoordinate
    5.028793456964195,        !- Vertex 3 Ycoordinate
    63,                       !- Vertex 3 Zcoordinate
    19.1173019867274,         !- Vertex 4 Xcoordinate
    5.028793456964195,        !- Vertex 4 Ycoordinate
    66;                       !- Vertex 4 Zcoordinate

BUILDINGSURFACE:DETAILED,
    Block Poly_87_Residential_3 Storey 21 Wall 0003,    !- Name
    Wall,                     !- Surface Type
    HSCWZ_Residential_2005_ExtWall,    !- Construction Name
    Block Poly_87_Residential_3 Storey 21,    !- Zone Name
    ,                         !- Space Name
    Outdoors,                 !- Outside Boundary Condition
    ,                         !- Outside Boundary Condition Object
    SunExposed,               !- Sun Exposure
    WindExposed,              !- Wind Exposure
    autocalculate,            !- View Factor to Ground
    autocalculate,            !- Number of Vertices
    19.1173019867274,         !- Vertex 1 Xcoordinate
    5.028793456964195,        !- Vertex 1 Ycoordinate
    66,                       !- Vertex 1 Zcoordinate
    19.1173019867274,         !- Vertex 2 Xcoordinate
    5.028793456964195,        !- Vertex 2 Ycoordinate
    63,                       !- Vertex 2 Zcoordinate
    36.42883482348407,        !- Vertex 3 Xcoordinate
    4.79777431068942,         !- Vertex 3 Ycoordinate
    63,                       !- Vertex 3 Zcoordinate
    36.42883482348407,        !- Vertex 4 Xcoordinate
    4.79777431068942,         !- Vertex 4 Ycoordinate
    66;                       !- Vertex 4 Zcoordinate

BUILDINGSURFACE:DETAILED,
    Block Poly_87_Residential_3 Storey 21 Wall 0004,    !- Name
    Wall,                     !- Surface Type
    HSCWZ_Residential_2005_ExtWall,    !- Construction Name
    Block Poly_87_Residential_3 Storey 21,    !- Zone Name
    ,                         !- Space Name
    Outdoors,                 !- Outside Boundary Condition
    ,                         !- Outside Boundary Condition Object
    SunExposed,               !- Sun Exposure
    WindExposed,              !- Wind Exposure
    autocalculate,            !- View Factor to Ground
    autocalculate,            !- Number of Vertices
    36.42883482348407,        !- Vertex 1 Xcoordinate
    4.79777431068942,         !- Vertex 1 Ycoordinate
    66,                       !- Vertex 1 Zcoordinate
    36.42883482348407,        !- Vertex 2 Xcoordinate
    4.79777431068942,         !- Vertex 2 Ycoordinate
    63,                       !- Vertex 2 Zcoordinate
    36.36671029863646,        !- Vertex 3 Xcoordinate
    0.1421512835659086,       !- Vertex 3 Ycoordinate
    63,                       !- Vertex 3 Zcoordinate
    36.36671029863646,        !- Vertex 4 Xcoordinate
    0.1421512835659086,       !- Vertex 4 Ycoordinate
    66;                       !- Vertex 4 Zcoordinate

BUILDINGSURFACE:DETAILED,
    Block Poly_87_Residential_3 Storey 21 Wall 0005,    !- Name
    Wall,                     !- Surface Type
    HSCWZ_Residential_2005_ExtWall,    !- Construction Name
    Block Poly_87_Residential_3 Storey 21,    !- Zone Name
    ,                         !- Space Name
    Outdoors,                 !- Outside Boundary Condition
    ,                         !- Outside Boundary Condition Object
    SunExposed,               !- Sun Exposure
    WindExposed,              !- Wind Exposure
    autocalculate,            !- View Factor to Ground
    autocalculate,            !- Number of Vertices
    36.36671029863646,        !- Vertex 1 Xcoordinate
    0.1421512835659086,       !- Vertex 1 Ycoordinate
    66,                       !- Vertex 1 Zcoordinate
    36.36671029863646,        !- Vertex 2 Xcoordinate
    0.1421512835659086,       !- Vertex 2 Ycoordinate
    63,                       !- Vertex 2 Zcoordinate
    47.01996569457697,        !- Vertex 3 Xcoordinate
    0,                        !- Vertex 3 Ycoordinate
    63,                       !- Vertex 3 Zcoordinate
    47.01996569457697,        !- Vertex 4 Xcoordinate
    0,                        !- Vertex 4 Ycoordinate
    66;                       !- Vertex 4 Zcoordinate

BUILDINGSURFACE:DETAILED,
    Block Poly_87_Residential_3 Storey 21 Wall 0006,    !- Name
    Wall,                     !- Surface Type
    HSCWZ_Residential_2005_ExtWall,    !- Construction Name
    Block Poly_87_Residential_3 Storey 21,    !- Zone Name
    ,                         !- Space Name
    Outdoors,                 !- Outside Boundary Condition
    ,                         !- Outside Boundary Condition Object
    SunExposed,               !- Sun Exposure
    WindExposed,              !- Wind Exposure
    autocalculate,            !- View Factor to Ground
    autocalculate,            !- Number of Vertices
    47.01996569457697,        !- Vertex 1 Xcoordinate
    0,                        !- Vertex 1 Ycoordinate
    66,                       !- Vertex 1 Zcoordinate
    47.01996569457697,        !- Vertex 2 Xcoordinate
    0,                        !- Vertex 2 Ycoordinate
    63,                       !- Vertex 2 Zcoordinate
    47.17720378719969,        !- Vertex 3 Xcoordinate
    4.654353759717196,        !- Vertex 3 Ycoordinate
    63,                       !- Vertex 3 Zcoordinate
    47.17720378719969,        !- Vertex 4 Xcoordinate
    4.654353759717196,        !- Vertex 4 Ycoordinate
    66;                       !- Vertex 4 Zcoordinate

BUILDINGSURFACE:DETAILED,
    Block Poly_87_Residential_3 Storey 21 Wall 0007,    !- Name
    Wall,                     !- Surface Type
    HSCWZ_Residential_2005_ExtWall,    !- Construction Name
    Block Poly_87_Residential_3 Storey 21,    !- Zone Name
    ,                         !- Space Name
    Outdoors,                 !- Outside Boundary Condition
    ,                         !- Outside Boundary Condition Object
    SunExposed,               !- Sun Exposure
    WindExposed,              !- Wind Exposure
    autocalculate,            !- View Factor to Ground
    autocalculate,            !- Number of Vertices
    47.17720378719969,        !- Vertex 1 Xcoordinate
    4.654353759717196,        !- Vertex 1 Ycoordinate
    66,                       !- Vertex 1 Zcoordinate
    47.17720378719969,        !- Vertex 2 Xcoordinate
    4.654353759717196,        !- Vertex 2 Ycoordinate
    63,                       !- Vertex 2 Zcoordinate
    56.211964038957376,       !- Vertex 3 Xcoordinate
    4.422939342446625,        !- Vertex 3 Ycoordinate
    63,                       !- Vertex 3 Zcoordinate
    56.211964038957376,       !- Vertex 4 Xcoordinate
    4.422939342446625,        !- Vertex 4 Ycoordinate
    66;                       !- Vertex 4 Zcoordinate

BUILDINGSURFACE:DETAILED,
    Block Poly_87_Residential_3 Storey 21 Wall 0008,    !- Name
    Wall,                     !- Surface Type
    HSCWZ_Residential_2005_ExtWall,    !- Construction Name
    Block Poly_87_Residential_3 Storey 21,    !- Zone Name
    ,                         !- Space Name
    Outdoors,                 !- Outside Boundary Condition
    ,                         !- Outside Boundary Condition Object
    SunExposed,               !- Sun Exposure
    WindExposed,              !- Wind Exposure
    autocalculate,            !- View Factor to Ground
    autocalculate,            !- Number of Vertices
    56.211964038957376,       !- Vertex 1 Xcoordinate
    4.422939342446625,        !- Vertex 1 Ycoordinate
    66,                       !- Vertex 1 Zcoordinate
    56.211964038957376,       !- Vertex 2 Xcoordinate
    4.422939342446625,        !- Vertex 2 Ycoordinate
    63,                       !- Vertex 2 Zcoordinate
    56.239598526794,          !- Vertex 3 Xcoordinate
    13.62460599699989,        !- Vertex 3 Ycoordinate
    63,                       !- Vertex 3 Zcoordinate
    56.239598526794,          !- Vertex 4 Xcoordinate
    13.62460599699989,        !- Vertex 4 Ycoordinate
    66;                       !- Vertex 4 Zcoordinate

BUILDINGSURFACE:DETAILED,
    Block Poly_87_Residential_3 Storey 21 Wall 0009,    !- Name
    Wall,                     !- Surface Type
    HSCWZ_Residential_2005_ExtWall,    !- Construction Name
    Block Poly_87_Residential_3 Storey 21,    !- Zone Name
    ,                         !- Space Name
    Outdoors,                 !- Outside Boundary Condition
    ,                         !- Outside Boundary Condition Object
    SunExposed,               !- Sun Exposure
    WindExposed,              !- Wind Exposure
    autocalculate,            !- View Factor to Ground
    autocalculate,            !- Number of Vertices
    56.239598526794,          !- Vertex 1 Xcoordinate
    13.62460599699989,        !- Vertex 1 Ycoordinate
    66,                       !- Vertex 1 Zcoordinate
    56.239598526794,          !- Vertex 2 Xcoordinate
    13.62460599699989,        !- Vertex 2 Ycoordinate
    63,                       !- Vertex 2 Zcoordinate
    0.1228021571296267,       !- Vertex 3 Xcoordinate
    14.595210153609514,       !- Vertex 3 Ycoordinate
    63,                       !- Vertex 3 Zcoordinate
    0.1228021571296267,       !- Vertex 4 Xcoordinate
    14.595210153609514,       !- Vertex 4 Ycoordinate
    66;                       !- Vertex 4 Zcoordinate

BUILDINGSURFACE:DETAILED,
    Block Poly_87_Residential_3 Storey 21 Wall 0010,    !- Name
    Wall,                     !- Surface Type
    HSCWZ_Residential_2005_ExtWall,    !- Construction Name
    Block Poly_87_Residential_3 Storey 21,    !- Zone Name
    ,                         !- Space Name
    Outdoors,                 !- Outside Boundary Condition
    ,                         !- Outside Boundary Condition Object
    SunExposed,               !- Sun Exposure
    WindExposed,              !- Wind Exposure
    autocalculate,            !- View Factor to Ground
    autocalculate,            !- Number of Vertices
    0.1228021571296267,       !- Vertex 1 Xcoordinate
    14.595210153609514,       !- Vertex 1 Ycoordinate
    66,                       !- Vertex 1 Zcoordinate
    0.1228021571296267,       !- Vertex 2 Xcoordinate
    14.595210153609514,       !- Vertex 2 Ycoordinate
    63,                       !- Vertex 2 Zcoordinate
    0,                        !- Vertex 3 Xcoordinate
    5.394811453763396,        !- Vertex 3 Ycoordinate
    63,                       !- Vertex 3 Zcoordinate
    0,                        !- Vertex 4 Xcoordinate
    5.394811453763396,        !- Vertex 4 Ycoordinate
    66;                       !- Vertex 4 Zcoordinate

BUILDINGSURFACE:DETAILED,
    Block Poly_87_Residential_3 Storey 21 Wall 0011,    !- Name
    Wall,                     !- Surface Type
    HSCWZ_Residential_2005_ExtWall,    !- Construction Name
    Block Poly_87_Residential_3 Storey 21,    !- Zone Name
    ,                         !- Space Name
    Outdoors,                 !- Outside Boundary Condition
    ,                         !- Outside Boundary Condition Object
    SunExposed,               !- Sun Exposure
    WindExposed,              !- Wind Exposure
    autocalculate,            !- View Factor to Ground
    autocalculate,            !- Number of Vertices
    0,                        !- Vertex 1 Xcoordinate
    5.394811453763396,        !- Vertex 1 Ycoordinate
    66,                       !- Vertex 1 Zcoordinate
    0,                        !- Vertex 2 Xcoordinate
    5.394811453763396,        !- Vertex 2 Ycoordinate
    63,                       !- Vertex 2 Zcoordinate
    8.370411821699236,        !- Vertex 3 Xcoordinate
    5.283091011922807,        !- Vertex 3 Ycoordinate
    63,                       !- Vertex 3 Zcoordinate
    8.370411821699236,        !- Vertex 4 Xcoordinate
    5.283091011922807,        !- Vertex 4 Ycoordinate
    66;                       !- Vertex 4 Zcoordinate

BUILDINGSURFACE:DETAILED,
    Block Poly_87_Residential_3 Storey 21 Wall 0012,    !- Name
    Wall,                     !- Surface Type
    HSCWZ_Residential_2005_ExtWall,    !- Construction Name
    Block Poly_87_Residential_3 Storey 21,    !- Zone Name
    ,                         !- Space Name
    Outdoors,                 !- Outside Boundary Condition
    ,                         !- Outside Boundary Condition Object
    SunExposed,               !- Sun Exposure
    WindExposed,              !- Wind Exposure
    autocalculate,            !- View Factor to Ground
    autocalculate,            !- Number of Vertices
    8.370411821699236,        !- Vertex 1 Xcoordinate
    5.283091011922807,        !- Vertex 1 Ycoordinate
    66,                       !- Vertex 1 Zcoordinate
    8.370411821699236,        !- Vertex 2 Xcoordinate
    5.283091011922807,        !- Vertex 2 Ycoordinate
    63,                       !- Vertex 2 Zcoordinate
    8.308274807932321,        !- Vertex 3 Xcoordinate
    0.6274677002802491,       !- Vertex 3 Ycoordinate
    63,                       !- Vertex 3 Zcoordinate
    8.308274807932321,        !- Vertex 4 Xcoordinate
    0.6274677002802491,       !- Vertex 4 Ycoordinate
    66;                       !- Vertex 4 Zcoordinate

BUILDINGSURFACE:DETAILED,
    Block Poly_87_Residential_3 Storey 21 Roof 0001,    !- Name
    Roof,                     !- Surface Type
    HSCWZ_Residential_2005_Roof,    !- Construction Name
    Block Poly_87_Residential_3 Storey 21,    !- Zone Name
    ,                         !- Space Name
    Outdoors,                 !- Outside Boundary Condition
    ,                         !- Outside Boundary Condition Object
    SunExposed,               !- Sun Exposure
    WindExposed,              !- Wind Exposure
    autocalculate,            !- View Factor to Ground
    autocalculate,            !- Number of Vertices
    56.211964038957376,       !- Vertex 1 Xcoordinate
    4.422939342446625,        !- Vertex 1 Ycoordinate
    66,                       !- Vertex 1 Zcoordinate
    56.239598526794,          !- Vertex 2 Xcoordinate
    13.62460599699989,        !- Vertex 2 Ycoordinate
    66,                       !- Vertex 2 Zcoordinate
    0.1228021571296267,       !- Vertex 3 Xcoordinate
    14.595210153609514,       !- Vertex 3 Ycoordinate
    66,                       !- Vertex 3 Zcoordinate
    0,                        !- Vertex 4 Xcoordinate
    5.394811453763396,        !- Vertex 4 Ycoordinate
    66,                       !- Vertex 4 Zcoordinate
    8.370411821699236,        !- Vertex 5 Xcoordinate
    5.283091011922807,        !- Vertex 5 Ycoordinate
    66,                       !- Vertex 5 Zcoordinate
    8.308274807932321,        !- Vertex 6 Xcoordinate
    0.6274677002802491,       !- Vertex 6 Ycoordinate
    66,                       !- Vertex 6 Zcoordinate
    18.9615307400818,         !- Vertex 7 Xcoordinate
    0.4852878404781222,       !- Vertex 7 Ycoordinate
    66,                       !- Vertex 7 Zcoordinate
    19.1173019867274,         !- Vertex 8 Xcoordinate
    5.028793456964195,        !- Vertex 8 Ycoordinate
    66,                       !- Vertex 8 Zcoordinate
    36.42883482348407,        !- Vertex 9 Xcoordinate
    4.79777431068942,         !- Vertex 9 Ycoordinate
    66,                       !- Vertex 9 Zcoordinate
    36.36671029863646,        !- Vertex 10 Xcoordinate
    0.1421512835659086,       !- Vertex 10 Ycoordinate
    66,                       !- Vertex 10 Zcoordinate
    47.01996569457697,        !- Vertex 11 Xcoordinate
    0,                        !- Vertex 11 Ycoordinate
    66,                       !- Vertex 11 Zcoordinate
    47.17720378719969,        !- Vertex 12 Xcoordinate
    4.654353759717196,        !- Vertex 12 Ycoordinate
    66;                       !- Vertex 12 Zcoordinate

BUILDINGSURFACE:DETAILED,
    Block Poly_87_Residential_3 Storey 0 Ceiling 0001_1,    !- Name
    Ceiling,                  !- Surface Type
    HSCWZ_Residential_2005_FloorSlab,    !- Construction Name
    Block Poly_87_Residential_3 Storey 0,    !- Zone Name
    ,                         !- Space Name
    Surface,                  !- Outside Boundary Condition
    Block Poly_87_Residential_3 Storey 1 Floor 0001_1,    !- Outside Boundary Condition Object
    NoSun,                    !- Sun Exposure
    NoWind,                   !- Wind Exposure
    autocalculate,            !- View Factor to Ground
    autocalculate,            !- Number of Vertices
    56.21196403866634,        !- Vertex 1 Xcoordinate
    4.422939342446625,        !- Vertex 1 Ycoordinate
    3,                        !- Vertex 1 Zcoordinate
    56.239598526619375,       !- Vertex 2 Xcoordinate
    13.62460599699989,        !- Vertex 2 Ycoordinate
    3,                        !- Vertex 2 Zcoordinate
    0.1228022,                !- Vertex 3 Xcoordinate
    14.595210153609514,       !- Vertex 3 Ycoordinate
    3.0000000000000004,       !- Vertex 3 Zcoordinate
    0,                        !- Vertex 4 Xcoordinate
    5.3948114537633955,       !- Vertex 4 Ycoordinate
    3.0000000000000004,       !- Vertex 4 Zcoordinate
    8.370411821641028,        !- Vertex 5 Xcoordinate
    5.2830910119228065,       !- Vertex 5 Ycoordinate
    3.0000000000000004,       !- Vertex 5 Zcoordinate
    8.308274807874113,        !- Vertex 6 Xcoordinate
    0.6274677002802491,       !- Vertex 6 Ycoordinate
    3.0000000000000004,       !- Vertex 6 Zcoordinate
    18.961530739907175,       !- Vertex 7 Xcoordinate
    0.4852878,                !- Vertex 7 Ycoordinate
    3.0000000000000004,       !- Vertex 7 Zcoordinate
    19.117301986552775,       !- Vertex 8 Xcoordinate
    5.028793456964195,        !- Vertex 8 Ycoordinate
    3.0000000000000004,       !- Vertex 8 Zcoordinate
    36.42883482342586,        !- Vertex 9 Xcoordinate
    4.7977743106894195,       !- Vertex 9 Ycoordinate
    3,                        !- Vertex 9 Zcoordinate
    36.36671029822901,        !- Vertex 10 Xcoordinate
    0.1421513,                !- Vertex 10 Ycoordinate
    3,                        !- Vertex 10 Zcoordinate
    47.01996569428593,        !- Vertex 11 Xcoordinate
    0,                        !- Vertex 11 Ycoordinate
    3,                        !- Vertex 11 Zcoordinate
    47.177203787025064,       !- Vertex 12 Xcoordinate
    4.654353759717196,        !- Vertex 12 Ycoordinate
    3;                        !- Vertex 12 Zcoordinate

BUILDINGSURFACE:DETAILED,
    Block Poly_87_Residential_3 Storey 1 Floor 0001_1,    !- Name
    Floor,                    !- Surface Type
    HSCWZ_Residential_2005_FloorSlab,    !- Construction Name
    Block Poly_87_Residential_3 Storey 1,    !- Zone Name
    ,                         !- Space Name
    Surface,                  !- Outside Boundary Condition
    Block Poly_87_Residential_3 Storey 0 Ceiling 0001_1,    !- Outside Boundary Condition Object
    NoSun,                    !- Sun Exposure
    NoWind,                   !- Wind Exposure
    autocalculate,            !- View Factor to Ground
    autocalculate,            !- Number of Vertices
    56.239598526619375,       !- Vertex 1 Xcoordinate
    13.62460599699989,        !- Vertex 1 Ycoordinate
    3,                        !- Vertex 1 Zcoordinate
    56.21196403866634,        !- Vertex 2 Xcoordinate
    4.422939342446625,        !- Vertex 2 Ycoordinate
    3,                        !- Vertex 2 Zcoordinate
    47.177203787025064,       !- Vertex 3 Xcoordinate
    4.654353759717196,        !- Vertex 3 Ycoordinate
    3,                        !- Vertex 3 Zcoordinate
    47.01996569428593,        !- Vertex 4 Xcoordinate
    0,                        !- Vertex 4 Ycoordinate
    3,                        !- Vertex 4 Zcoordinate
    36.36671029822901,        !- Vertex 5 Xcoordinate
    0.1421513,                !- Vertex 5 Ycoordinate
    3,                        !- Vertex 5 Zcoordinate
    36.42883482342586,        !- Vertex 6 Xcoordinate
    4.7977743106894195,       !- Vertex 6 Ycoordinate
    3,                        !- Vertex 6 Zcoordinate
    19.117301986552775,       !- Vertex 7 Xcoordinate
    5.028793456964195,        !- Vertex 7 Ycoordinate
    3.0000000000000004,       !- Vertex 7 Zcoordinate
    18.961530739907175,       !- Vertex 8 Xcoordinate
    0.4852878,                !- Vertex 8 Ycoordinate
    3.0000000000000004,       !- Vertex 8 Zcoordinate
    8.308274807874113,        !- Vertex 9 Xcoordinate
    0.6274677002802491,       !- Vertex 9 Ycoordinate
    3.0000000000000004,       !- Vertex 9 Zcoordinate
    8.370411821641028,        !- Vertex 10 Xcoordinate
    5.2830910119228065,       !- Vertex 10 Ycoordinate
    3.0000000000000004,       !- Vertex 10 Zcoordinate
    0,                        !- Vertex 11 Xcoordinate
    5.3948114537633955,       !- Vertex 11 Ycoordinate
    3.0000000000000004,       !- Vertex 11 Zcoordinate
    0.1228022,                !- Vertex 12 Xcoordinate
    14.595210153609514,       !- Vertex 12 Ycoordinate
    3.0000000000000004;       !- Vertex 12 Zcoordinate

BUILDINGSURFACE:DETAILED,
    Block Poly_87_Residential_3 Storey 1 Ceiling 0001_1,    !- Name
    Ceiling,                  !- Surface Type
    HSCWZ_Residential_2005_FloorSlab,    !- Construction Name
    Block Poly_87_Residential_3 Storey 1,    !- Zone Name
    ,                         !- Space Name
    Surface,                  !- Outside Boundary Condition
    Block Poly_87_Residential_3 Storey 2 Floor 0001_1,    !- Outside Boundary Condition Object
    NoSun,                    !- Sun Exposure
    NoWind,                   !- Wind Exposure
    autocalculate,            !- View Factor to Ground
    autocalculate,            !- Number of Vertices
    56.21196403866634,        !- Vertex 1 Xcoordinate
    4.422939342446625,        !- Vertex 1 Ycoordinate
    6,                        !- Vertex 1 Zcoordinate
    56.239598526619375,       !- Vertex 2 Xcoordinate
    13.62460599699989,        !- Vertex 2 Ycoordinate
    6,                        !- Vertex 2 Zcoordinate
    0.1228022,                !- Vertex 3 Xcoordinate
    14.595210153609514,       !- Vertex 3 Ycoordinate
    6.000000000000001,        !- Vertex 3 Zcoordinate
    0,                        !- Vertex 4 Xcoordinate
    5.3948114537633955,       !- Vertex 4 Ycoordinate
    6.000000000000001,        !- Vertex 4 Zcoordinate
    8.370411821641028,        !- Vertex 5 Xcoordinate
    5.2830910119228065,       !- Vertex 5 Ycoordinate
    6.000000000000001,        !- Vertex 5 Zcoordinate
    8.308274807874113,        !- Vertex 6 Xcoordinate
    0.6274677002802491,       !- Vertex 6 Ycoordinate
    6.000000000000001,        !- Vertex 6 Zcoordinate
    18.961530739907175,       !- Vertex 7 Xcoordinate
    0.4852878,                !- Vertex 7 Ycoordinate
    6.000000000000001,        !- Vertex 7 Zcoordinate
    19.117301986552775,       !- Vertex 8 Xcoordinate
    5.028793456964195,        !- Vertex 8 Ycoordinate
    6.000000000000001,        !- Vertex 8 Zcoordinate
    36.42883482342586,        !- Vertex 9 Xcoordinate
    4.7977743106894195,       !- Vertex 9 Ycoordinate
    6,                        !- Vertex 9 Zcoordinate
    36.36671029822901,        !- Vertex 10 Xcoordinate
    0.1421513,                !- Vertex 10 Ycoordinate
    6,                        !- Vertex 10 Zcoordinate
    47.01996569428593,        !- Vertex 11 Xcoordinate
    0,                        !- Vertex 11 Ycoordinate
    6,                        !- Vertex 11 Zcoordinate
    47.177203787025064,       !- Vertex 12 Xcoordinate
    4.654353759717196,        !- Vertex 12 Ycoordinate
    6;                        !- Vertex 12 Zcoordinate

BUILDINGSURFACE:DETAILED,
    Block Poly_87_Residential_3 Storey 2 Floor 0001_1,    !- Name
    Floor,                    !- Surface Type
    HSCWZ_Residential_2005_FloorSlab,    !- Construction Name
    Block Poly_87_Residential_3 Storey 2,    !- Zone Name
    ,                         !- Space Name
    Surface,                  !- Outside Boundary Condition
    Block Poly_87_Residential_3 Storey 1 Ceiling 0001_1,    !- Outside Boundary Condition Object
    NoSun,                    !- Sun Exposure
    NoWind,                   !- Wind Exposure
    autocalculate,            !- View Factor to Ground
    autocalculate,            !- Number of Vertices
    56.239598526619375,       !- Vertex 1 Xcoordinate
    13.62460599699989,        !- Vertex 1 Ycoordinate
    6,                        !- Vertex 1 Zcoordinate
    56.21196403866634,        !- Vertex 2 Xcoordinate
    4.422939342446625,        !- Vertex 2 Ycoordinate
    6,                        !- Vertex 2 Zcoordinate
    47.177203787025064,       !- Vertex 3 Xcoordinate
    4.654353759717196,        !- Vertex 3 Ycoordinate
    6,                        !- Vertex 3 Zcoordinate
    47.01996569428593,        !- Vertex 4 Xcoordinate
    0,                        !- Vertex 4 Ycoordinate
    6,                        !- Vertex 4 Zcoordinate
    36.36671029822901,        !- Vertex 5 Xcoordinate
    0.1421513,                !- Vertex 5 Ycoordinate
    6,                        !- Vertex 5 Zcoordinate
    36.42883482342586,        !- Vertex 6 Xcoordinate
    4.7977743106894195,       !- Vertex 6 Ycoordinate
    6,                        !- Vertex 6 Zcoordinate
    19.117301986552775,       !- Vertex 7 Xcoordinate
    5.028793456964195,        !- Vertex 7 Ycoordinate
    6.000000000000001,        !- Vertex 7 Zcoordinate
    18.961530739907175,       !- Vertex 8 Xcoordinate
    0.4852878,                !- Vertex 8 Ycoordinate
    6.000000000000001,        !- Vertex 8 Zcoordinate
    8.308274807874113,        !- Vertex 9 Xcoordinate
    0.6274677002802491,       !- Vertex 9 Ycoordinate
    6.000000000000001,        !- Vertex 9 Zcoordinate
    8.370411821641028,        !- Vertex 10 Xcoordinate
    5.2830910119228065,       !- Vertex 10 Ycoordinate
    6.000000000000001,        !- Vertex 10 Zcoordinate
    0,                        !- Vertex 11 Xcoordinate
    5.3948114537633955,       !- Vertex 11 Ycoordinate
    6.000000000000001,        !- Vertex 11 Zcoordinate
    0.1228022,                !- Vertex 12 Xcoordinate
    14.595210153609514,       !- Vertex 12 Ycoordinate
    6.000000000000001;        !- Vertex 12 Zcoordinate

BUILDINGSURFACE:DETAILED,
    Block Poly_87_Residential_3 Storey 2 Ceiling 0001_1,    !- Name
    Ceiling,                  !- Surface Type
    HSCWZ_Residential_2005_FloorSlab,    !- Construction Name
    Block Poly_87_Residential_3 Storey 2,    !- Zone Name
    ,                         !- Space Name
    Surface,                  !- Outside Boundary Condition
    Block Poly_87_Residential_3 Storey 3 Floor 0001_1,    !- Outside Boundary Condition Object
    NoSun,                    !- Sun Exposure
    NoWind,                   !- Wind Exposure
    autocalculate,            !- View Factor to Ground
    autocalculate,            !- Number of Vertices
    56.21196403866634,        !- Vertex 1 Xcoordinate
    4.422939342446625,        !- Vertex 1 Ycoordinate
    9,                        !- Vertex 1 Zcoordinate
    56.239598526619375,       !- Vertex 2 Xcoordinate
    13.62460599699989,        !- Vertex 2 Ycoordinate
    9,                        !- Vertex 2 Zcoordinate
    0.1228022,                !- Vertex 3 Xcoordinate
    14.595210153609514,       !- Vertex 3 Ycoordinate
    9,                        !- Vertex 3 Zcoordinate
    0,                        !- Vertex 4 Xcoordinate
    5.3948114537633955,       !- Vertex 4 Ycoordinate
    9,                        !- Vertex 4 Zcoordinate
    8.370411821641028,        !- Vertex 5 Xcoordinate
    5.2830910119228065,       !- Vertex 5 Ycoordinate
    9,                        !- Vertex 5 Zcoordinate
    8.308274807874113,        !- Vertex 6 Xcoordinate
    0.6274677002802491,       !- Vertex 6 Ycoordinate
    9,                        !- Vertex 6 Zcoordinate
    18.961530739907175,       !- Vertex 7 Xcoordinate
    0.4852878,                !- Vertex 7 Ycoordinate
    9,                        !- Vertex 7 Zcoordinate
    19.117301986552775,       !- Vertex 8 Xcoordinate
    5.028793456964195,        !- Vertex 8 Ycoordinate
    9,                        !- Vertex 8 Zcoordinate
    36.42883482342586,        !- Vertex 9 Xcoordinate
    4.7977743106894195,       !- Vertex 9 Ycoordinate
    9,                        !- Vertex 9 Zcoordinate
    36.36671029822901,        !- Vertex 10 Xcoordinate
    0.1421513,                !- Vertex 10 Ycoordinate
    9,                        !- Vertex 10 Zcoordinate
    47.01996569428593,        !- Vertex 11 Xcoordinate
    0,                        !- Vertex 11 Ycoordinate
    9,                        !- Vertex 11 Zcoordinate
    47.177203787025064,       !- Vertex 12 Xcoordinate
    4.654353759717196,        !- Vertex 12 Ycoordinate
    9;                        !- Vertex 12 Zcoordinate

BUILDINGSURFACE:DETAILED,
    Block Poly_87_Residential_3 Storey 3 Floor 0001_1,    !- Name
    Floor,                    !- Surface Type
    HSCWZ_Residential_2005_FloorSlab,    !- Construction Name
    Block Poly_87_Residential_3 Storey 3,    !- Zone Name
    ,                         !- Space Name
    Surface,                  !- Outside Boundary Condition
    Block Poly_87_Residential_3 Storey 2 Ceiling 0001_1,    !- Outside Boundary Condition Object
    NoSun,                    !- Sun Exposure
    NoWind,                   !- Wind Exposure
    autocalculate,            !- View Factor to Ground
    autocalculate,            !- Number of Vertices
    56.239598526619375,       !- Vertex 1 Xcoordinate
    13.62460599699989,        !- Vertex 1 Ycoordinate
    9,                        !- Vertex 1 Zcoordinate
    56.21196403866634,        !- Vertex 2 Xcoordinate
    4.422939342446625,        !- Vertex 2 Ycoordinate
    9,                        !- Vertex 2 Zcoordinate
    47.177203787025064,       !- Vertex 3 Xcoordinate
    4.654353759717196,        !- Vertex 3 Ycoordinate
    9,                        !- Vertex 3 Zcoordinate
    47.01996569428593,        !- Vertex 4 Xcoordinate
    0,                        !- Vertex 4 Ycoordinate
    9,                        !- Vertex 4 Zcoordinate
    36.36671029822901,        !- Vertex 5 Xcoordinate
    0.1421513,                !- Vertex 5 Ycoordinate
    9,                        !- Vertex 5 Zcoordinate
    36.42883482342586,        !- Vertex 6 Xcoordinate
    4.7977743106894195,       !- Vertex 6 Ycoordinate
    9,                        !- Vertex 6 Zcoordinate
    19.117301986552775,       !- Vertex 7 Xcoordinate
    5.028793456964195,        !- Vertex 7 Ycoordinate
    9,                        !- Vertex 7 Zcoordinate
    18.961530739907175,       !- Vertex 8 Xcoordinate
    0.4852878,                !- Vertex 8 Ycoordinate
    9,                        !- Vertex 8 Zcoordinate
    8.308274807874113,        !- Vertex 9 Xcoordinate
    0.6274677002802491,       !- Vertex 9 Ycoordinate
    9,                        !- Vertex 9 Zcoordinate
    8.370411821641028,        !- Vertex 10 Xcoordinate
    5.2830910119228065,       !- Vertex 10 Ycoordinate
    9,                        !- Vertex 10 Zcoordinate
    0,                        !- Vertex 11 Xcoordinate
    5.3948114537633955,       !- Vertex 11 Ycoordinate
    9,                        !- Vertex 11 Zcoordinate
    0.1228022,                !- Vertex 12 Xcoordinate
    14.595210153609514,       !- Vertex 12 Ycoordinate
    9;                        !- Vertex 12 Zcoordinate

BUILDINGSURFACE:DETAILED,
    Block Poly_87_Residential_3 Storey 3 Ceiling 0001_1,    !- Name
    Ceiling,                  !- Surface Type
    HSCWZ_Residential_2005_FloorSlab,    !- Construction Name
    Block Poly_87_Residential_3 Storey 3,    !- Zone Name
    ,                         !- Space Name
    Surface,                  !- Outside Boundary Condition
    Block Poly_87_Residential_3 Storey 4 Floor 0001_1,    !- Outside Boundary Condition Object
    NoSun,                    !- Sun Exposure
    NoWind,                   !- Wind Exposure
    autocalculate,            !- View Factor to Ground
    autocalculate,            !- Number of Vertices
    56.21196403866634,        !- Vertex 1 Xcoordinate
    4.422939342446625,        !- Vertex 1 Ycoordinate
    12,                       !- Vertex 1 Zcoordinate
    56.239598526619375,       !- Vertex 2 Xcoordinate
    13.62460599699989,        !- Vertex 2 Ycoordinate
    12,                       !- Vertex 2 Zcoordinate
    0.1228022,                !- Vertex 3 Xcoordinate
    14.595210153609514,       !- Vertex 3 Ycoordinate
    12.000000000000002,       !- Vertex 3 Zcoordinate
    0,                        !- Vertex 4 Xcoordinate
    5.3948114537633955,       !- Vertex 4 Ycoordinate
    12.000000000000002,       !- Vertex 4 Zcoordinate
    8.370411821641028,        !- Vertex 5 Xcoordinate
    5.2830910119228065,       !- Vertex 5 Ycoordinate
    12.000000000000002,       !- Vertex 5 Zcoordinate
    8.308274807874113,        !- Vertex 6 Xcoordinate
    0.6274677002802491,       !- Vertex 6 Ycoordinate
    12.000000000000002,       !- Vertex 6 Zcoordinate
    18.961530739907175,       !- Vertex 7 Xcoordinate
    0.4852878,                !- Vertex 7 Ycoordinate
    12.000000000000002,       !- Vertex 7 Zcoordinate
    19.117301986552775,       !- Vertex 8 Xcoordinate
    5.028793456964195,        !- Vertex 8 Ycoordinate
    12.000000000000002,       !- Vertex 8 Zcoordinate
    36.42883482342586,        !- Vertex 9 Xcoordinate
    4.7977743106894195,       !- Vertex 9 Ycoordinate
    12,                       !- Vertex 9 Zcoordinate
    36.36671029822901,        !- Vertex 10 Xcoordinate
    0.1421513,                !- Vertex 10 Ycoordinate
    12,                       !- Vertex 10 Zcoordinate
    47.01996569428593,        !- Vertex 11 Xcoordinate
    0,                        !- Vertex 11 Ycoordinate
    12,                       !- Vertex 11 Zcoordinate
    47.177203787025064,       !- Vertex 12 Xcoordinate
    4.654353759717196,        !- Vertex 12 Ycoordinate
    12;                       !- Vertex 12 Zcoordinate

BUILDINGSURFACE:DETAILED,
    Block Poly_87_Residential_3 Storey 4 Floor 0001_1,    !- Name
    Floor,                    !- Surface Type
    HSCWZ_Residential_2005_FloorSlab,    !- Construction Name
    Block Poly_87_Residential_3 Storey 4,    !- Zone Name
    ,                         !- Space Name
    Surface,                  !- Outside Boundary Condition
    Block Poly_87_Residential_3 Storey 3 Ceiling 0001_1,    !- Outside Boundary Condition Object
    NoSun,                    !- Sun Exposure
    NoWind,                   !- Wind Exposure
    autocalculate,            !- View Factor to Ground
    autocalculate,            !- Number of Vertices
    56.239598526619375,       !- Vertex 1 Xcoordinate
    13.62460599699989,        !- Vertex 1 Ycoordinate
    12,                       !- Vertex 1 Zcoordinate
    56.21196403866634,        !- Vertex 2 Xcoordinate
    4.422939342446625,        !- Vertex 2 Ycoordinate
    12,                       !- Vertex 2 Zcoordinate
    47.177203787025064,       !- Vertex 3 Xcoordinate
    4.654353759717196,        !- Vertex 3 Ycoordinate
    12,                       !- Vertex 3 Zcoordinate
    47.01996569428593,        !- Vertex 4 Xcoordinate
    0,                        !- Vertex 4 Ycoordinate
    12,                       !- Vertex 4 Zcoordinate
    36.36671029822901,        !- Vertex 5 Xcoordinate
    0.1421513,                !- Vertex 5 Ycoordinate
    12,                       !- Vertex 5 Zcoordinate
    36.42883482342586,        !- Vertex 6 Xcoordinate
    4.7977743106894195,       !- Vertex 6 Ycoordinate
    12,                       !- Vertex 6 Zcoordinate
    19.117301986552775,       !- Vertex 7 Xcoordinate
    5.028793456964195,        !- Vertex 7 Ycoordinate
    12.000000000000002,       !- Vertex 7 Zcoordinate
    18.961530739907175,       !- Vertex 8 Xcoordinate
    0.4852878,                !- Vertex 8 Ycoordinate
    12.000000000000002,       !- Vertex 8 Zcoordinate
    8.308274807874113,        !- Vertex 9 Xcoordinate
    0.6274677002802491,       !- Vertex 9 Ycoordinate
    12.000000000000002,       !- Vertex 9 Zcoordinate
    8.370411821641028,        !- Vertex 10 Xcoordinate
    5.2830910119228065,       !- Vertex 10 Ycoordinate
    12.000000000000002,       !- Vertex 10 Zcoordinate
    0,                        !- Vertex 11 Xcoordinate
    5.3948114537633955,       !- Vertex 11 Ycoordinate
    12.000000000000002,       !- Vertex 11 Zcoordinate
    0.1228022,                !- Vertex 12 Xcoordinate
    14.595210153609514,       !- Vertex 12 Ycoordinate
    12.000000000000002;       !- Vertex 12 Zcoordinate

BUILDINGSURFACE:DETAILED,
    Block Poly_87_Residential_3 Storey 4 Ceiling 0001_1,    !- Name
    Ceiling,                  !- Surface Type
    HSCWZ_Residential_2005_FloorSlab,    !- Construction Name
    Block Poly_87_Residential_3 Storey 4,    !- Zone Name
    ,                         !- Space Name
    Surface,                  !- Outside Boundary Condition
    Block Poly_87_Residential_3 Storey 5 Floor 0001_1,    !- Outside Boundary Condition Object
    NoSun,                    !- Sun Exposure
    NoWind,                   !- Wind Exposure
    autocalculate,            !- View Factor to Ground
    autocalculate,            !- Number of Vertices
    56.21196403866634,        !- Vertex 1 Xcoordinate
    4.422939342446625,        !- Vertex 1 Ycoordinate
    15,                       !- Vertex 1 Zcoordinate
    56.239598526619375,       !- Vertex 2 Xcoordinate
    13.62460599699989,        !- Vertex 2 Ycoordinate
    15,                       !- Vertex 2 Zcoordinate
    0.1228022,                !- Vertex 3 Xcoordinate
    14.595210153609514,       !- Vertex 3 Ycoordinate
    15.000000000000004,       !- Vertex 3 Zcoordinate
    0,                        !- Vertex 4 Xcoordinate
    5.3948114537633955,       !- Vertex 4 Ycoordinate
    15.000000000000004,       !- Vertex 4 Zcoordinate
    8.370411821641028,        !- Vertex 5 Xcoordinate
    5.2830910119228065,       !- Vertex 5 Ycoordinate
    15.000000000000004,       !- Vertex 5 Zcoordinate
    8.308274807874113,        !- Vertex 6 Xcoordinate
    0.6274677002802491,       !- Vertex 6 Ycoordinate
    15.000000000000004,       !- Vertex 6 Zcoordinate
    18.961530739907175,       !- Vertex 7 Xcoordinate
    0.4852878,                !- Vertex 7 Ycoordinate
    15.000000000000002,       !- Vertex 7 Zcoordinate
    19.117301986552775,       !- Vertex 8 Xcoordinate
    5.028793456964195,        !- Vertex 8 Ycoordinate
    15.000000000000002,       !- Vertex 8 Zcoordinate
    36.42883482342586,        !- Vertex 9 Xcoordinate
    4.7977743106894195,       !- Vertex 9 Ycoordinate
    15.000000000000002,       !- Vertex 9 Zcoordinate
    36.36671029822901,        !- Vertex 10 Xcoordinate
    0.1421513,                !- Vertex 10 Ycoordinate
    15.000000000000002,       !- Vertex 10 Zcoordinate
    47.01996569428593,        !- Vertex 11 Xcoordinate
    0,                        !- Vertex 11 Ycoordinate
    15,                       !- Vertex 11 Zcoordinate
    47.177203787025064,       !- Vertex 12 Xcoordinate
    4.654353759717196,        !- Vertex 12 Ycoordinate
    15;                       !- Vertex 12 Zcoordinate

BUILDINGSURFACE:DETAILED,
    Block Poly_87_Residential_3 Storey 5 Floor 0001_1,    !- Name
    Floor,                    !- Surface Type
    HSCWZ_Residential_2005_FloorSlab,    !- Construction Name
    Block Poly_87_Residential_3 Storey 5,    !- Zone Name
    ,                         !- Space Name
    Surface,                  !- Outside Boundary Condition
    Block Poly_87_Residential_3 Storey 4 Ceiling 0001_1,    !- Outside Boundary Condition Object
    NoSun,                    !- Sun Exposure
    NoWind,                   !- Wind Exposure
    autocalculate,            !- View Factor to Ground
    autocalculate,            !- Number of Vertices
    56.239598526619375,       !- Vertex 1 Xcoordinate
    13.62460599699989,        !- Vertex 1 Ycoordinate
    14.999999999999998,       !- Vertex 1 Zcoordinate
    56.21196403866634,        !- Vertex 2 Xcoordinate
    4.422939342446625,        !- Vertex 2 Ycoordinate
    14.999999999999998,       !- Vertex 2 Zcoordinate
    47.177203787025064,       !- Vertex 3 Xcoordinate
    4.654353759717196,        !- Vertex 3 Ycoordinate
    15,                       !- Vertex 3 Zcoordinate
    47.01996569428593,        !- Vertex 4 Xcoordinate
    0,                        !- Vertex 4 Ycoordinate
    15,                       !- Vertex 4 Zcoordinate
    36.36671029822901,        !- Vertex 5 Xcoordinate
    0.1421513,                !- Vertex 5 Ycoordinate
    15,                       !- Vertex 5 Zcoordinate
    36.42883482342586,        !- Vertex 6 Xcoordinate
    4.7977743106894195,       !- Vertex 6 Ycoordinate
    15,                       !- Vertex 6 Zcoordinate
    19.117301986552775,       !- Vertex 7 Xcoordinate
    5.028793456964195,        !- Vertex 7 Ycoordinate
    15.000000000000002,       !- Vertex 7 Zcoordinate
    18.961530739907175,       !- Vertex 8 Xcoordinate
    0.4852878,                !- Vertex 8 Ycoordinate
    15.000000000000002,       !- Vertex 8 Zcoordinate
    8.308274807874113,        !- Vertex 9 Xcoordinate
    0.6274677002802491,       !- Vertex 9 Ycoordinate
    15.000000000000004,       !- Vertex 9 Zcoordinate
    8.370411821641028,        !- Vertex 10 Xcoordinate
    5.2830910119228065,       !- Vertex 10 Ycoordinate
    15.000000000000004,       !- Vertex 10 Zcoordinate
    0,                        !- Vertex 11 Xcoordinate
    5.3948114537633955,       !- Vertex 11 Ycoordinate
    15.000000000000004,       !- Vertex 11 Zcoordinate
    0.1228022,                !- Vertex 12 Xcoordinate
    14.595210153609514,       !- Vertex 12 Ycoordinate
    15.000000000000004;       !- Vertex 12 Zcoordinate

BUILDINGSURFACE:DETAILED,
    Block Poly_87_Residential_3 Storey 5 Ceiling 0001_1,    !- Name
    Ceiling,                  !- Surface Type
    HSCWZ_Residential_2005_FloorSlab,    !- Construction Name
    Block Poly_87_Residential_3 Storey 5,    !- Zone Name
    ,                         !- Space Name
    Surface,                  !- Outside Boundary Condition
    Block Poly_87_Residential_3 Storey 6 Floor 0001_1,    !- Outside Boundary Condition Object
    NoSun,                    !- Sun Exposure
    NoWind,                   !- Wind Exposure
    autocalculate,            !- View Factor to Ground
    autocalculate,            !- Number of Vertices
    56.21196403866634,        !- Vertex 1 Xcoordinate
    4.422939342446625,        !- Vertex 1 Ycoordinate
    18,                       !- Vertex 1 Zcoordinate
    56.239598526619375,       !- Vertex 2 Xcoordinate
    13.62460599699989,        !- Vertex 2 Ycoordinate
    18,                       !- Vertex 2 Zcoordinate
    0.1228022,                !- Vertex 3 Xcoordinate
    14.595210153609514,       !- Vertex 3 Ycoordinate
    18,                       !- Vertex 3 Zcoordinate
    0,                        !- Vertex 4 Xcoordinate
    5.3948114537633955,       !- Vertex 4 Ycoordinate
    18,                       !- Vertex 4 Zcoordinate
    8.370411821641028,        !- Vertex 5 Xcoordinate
    5.2830910119228065,       !- Vertex 5 Ycoordinate
    18,                       !- Vertex 5 Zcoordinate
    8.308274807874113,        !- Vertex 6 Xcoordinate
    0.6274677002802491,       !- Vertex 6 Ycoordinate
    18,                       !- Vertex 6 Zcoordinate
    18.961530739907175,       !- Vertex 7 Xcoordinate
    0.4852878,                !- Vertex 7 Ycoordinate
    18,                       !- Vertex 7 Zcoordinate
    19.117301986552775,       !- Vertex 8 Xcoordinate
    5.028793456964195,        !- Vertex 8 Ycoordinate
    18,                       !- Vertex 8 Zcoordinate
    36.42883482342586,        !- Vertex 9 Xcoordinate
    4.7977743106894195,       !- Vertex 9 Ycoordinate
    18,                       !- Vertex 9 Zcoordinate
    36.36671029822901,        !- Vertex 10 Xcoordinate
    0.1421513,                !- Vertex 10 Ycoordinate
    18,                       !- Vertex 10 Zcoordinate
    47.01996569428593,        !- Vertex 11 Xcoordinate
    0,                        !- Vertex 11 Ycoordinate
    18,                       !- Vertex 11 Zcoordinate
    47.177203787025064,       !- Vertex 12 Xcoordinate
    4.654353759717196,        !- Vertex 12 Ycoordinate
    18;                       !- Vertex 12 Zcoordinate

BUILDINGSURFACE:DETAILED,
    Block Poly_87_Residential_3 Storey 6 Floor 0001_1,    !- Name
    Floor,                    !- Surface Type
    HSCWZ_Residential_2005_FloorSlab,    !- Construction Name
    Block Poly_87_Residential_3 Storey 6,    !- Zone Name
    ,                         !- Space Name
    Surface,                  !- Outside Boundary Condition
    Block Poly_87_Residential_3 Storey 5 Ceiling 0001_1,    !- Outside Boundary Condition Object
    NoSun,                    !- Sun Exposure
    NoWind,                   !- Wind Exposure
    autocalculate,            !- View Factor to Ground
    autocalculate,            !- Number of Vertices
    56.239598526619375,       !- Vertex 1 Xcoordinate
    13.62460599699989,        !- Vertex 1 Ycoordinate
    18,                       !- Vertex 1 Zcoordinate
    56.21196403866634,        !- Vertex 2 Xcoordinate
    4.422939342446625,        !- Vertex 2 Ycoordinate
    18,                       !- Vertex 2 Zcoordinate
    47.177203787025064,       !- Vertex 3 Xcoordinate
    4.654353759717196,        !- Vertex 3 Ycoordinate
    18,                       !- Vertex 3 Zcoordinate
    47.01996569428593,        !- Vertex 4 Xcoordinate
    0,                        !- Vertex 4 Ycoordinate
    18,                       !- Vertex 4 Zcoordinate
    36.36671029822901,        !- Vertex 5 Xcoordinate
    0.1421513,                !- Vertex 5 Ycoordinate
    18,                       !- Vertex 5 Zcoordinate
    36.42883482342586,        !- Vertex 6 Xcoordinate
    4.7977743106894195,       !- Vertex 6 Ycoordinate
    18,                       !- Vertex 6 Zcoordinate
    19.117301986552775,       !- Vertex 7 Xcoordinate
    5.028793456964195,        !- Vertex 7 Ycoordinate
    18,                       !- Vertex 7 Zcoordinate
    18.961530739907175,       !- Vertex 8 Xcoordinate
    0.4852878,                !- Vertex 8 Ycoordinate
    18,                       !- Vertex 8 Zcoordinate
    8.308274807874113,        !- Vertex 9 Xcoordinate
    0.6274677002802491,       !- Vertex 9 Ycoordinate
    18,                       !- Vertex 9 Zcoordinate
    8.370411821641028,        !- Vertex 10 Xcoordinate
    5.2830910119228065,       !- Vertex 10 Ycoordinate
    18,                       !- Vertex 10 Zcoordinate
    0,                        !- Vertex 11 Xcoordinate
    5.3948114537633955,       !- Vertex 11 Ycoordinate
    18,                       !- Vertex 11 Zcoordinate
    0.1228022,                !- Vertex 12 Xcoordinate
    14.595210153609514,       !- Vertex 12 Ycoordinate
    18;                       !- Vertex 12 Zcoordinate

BUILDINGSURFACE:DETAILED,
    Block Poly_87_Residential_3 Storey 6 Ceiling 0001_1,    !- Name
    Ceiling,                  !- Surface Type
    HSCWZ_Residential_2005_FloorSlab,    !- Construction Name
    Block Poly_87_Residential_3 Storey 6,    !- Zone Name
    ,                         !- Space Name
    Surface,                  !- Outside Boundary Condition
    Block Poly_87_Residential_3 Storey 7 Floor 0001_1,    !- Outside Boundary Condition Object
    NoSun,                    !- Sun Exposure
    NoWind,                   !- Wind Exposure
    autocalculate,            !- View Factor to Ground
    autocalculate,            !- Number of Vertices
    56.21196403866634,        !- Vertex 1 Xcoordinate
    4.422939342446625,        !- Vertex 1 Ycoordinate
    21,                       !- Vertex 1 Zcoordinate
    56.239598526619375,       !- Vertex 2 Xcoordinate
    13.62460599699989,        !- Vertex 2 Ycoordinate
    21,                       !- Vertex 2 Zcoordinate
    0.1228022,                !- Vertex 3 Xcoordinate
    14.595210153609514,       !- Vertex 3 Ycoordinate
    21,                       !- Vertex 3 Zcoordinate
    0,                        !- Vertex 4 Xcoordinate
    5.3948114537633955,       !- Vertex 4 Ycoordinate
    21,                       !- Vertex 4 Zcoordinate
    8.370411821641028,        !- Vertex 5 Xcoordinate
    5.2830910119228065,       !- Vertex 5 Ycoordinate
    21,                       !- Vertex 5 Zcoordinate
    8.308274807874113,        !- Vertex 6 Xcoordinate
    0.6274677002802491,       !- Vertex 6 Ycoordinate
    21,                       !- Vertex 6 Zcoordinate
    18.961530739907175,       !- Vertex 7 Xcoordinate
    0.4852878,                !- Vertex 7 Ycoordinate
    21,                       !- Vertex 7 Zcoordinate
    19.117301986552775,       !- Vertex 8 Xcoordinate
    5.028793456964195,        !- Vertex 8 Ycoordinate
    21,                       !- Vertex 8 Zcoordinate
    36.42883482342586,        !- Vertex 9 Xcoordinate
    4.7977743106894195,       !- Vertex 9 Ycoordinate
    21,                       !- Vertex 9 Zcoordinate
    36.36671029822901,        !- Vertex 10 Xcoordinate
    0.1421513,                !- Vertex 10 Ycoordinate
    21,                       !- Vertex 10 Zcoordinate
    47.01996569428593,        !- Vertex 11 Xcoordinate
    0,                        !- Vertex 11 Ycoordinate
    21,                       !- Vertex 11 Zcoordinate
    47.177203787025064,       !- Vertex 12 Xcoordinate
    4.654353759717196,        !- Vertex 12 Ycoordinate
    21;                       !- Vertex 12 Zcoordinate

BUILDINGSURFACE:DETAILED,
    Block Poly_87_Residential_3 Storey 7 Floor 0001_1,    !- Name
    Floor,                    !- Surface Type
    HSCWZ_Residential_2005_FloorSlab,    !- Construction Name
    Block Poly_87_Residential_3 Storey 7,    !- Zone Name
    ,                         !- Space Name
    Surface,                  !- Outside Boundary Condition
    Block Poly_87_Residential_3 Storey 6 Ceiling 0001_1,    !- Outside Boundary Condition Object
    NoSun,                    !- Sun Exposure
    NoWind,                   !- Wind Exposure
    autocalculate,            !- View Factor to Ground
    autocalculate,            !- Number of Vertices
    56.239598526619375,       !- Vertex 1 Xcoordinate
    13.62460599699989,        !- Vertex 1 Ycoordinate
    21,                       !- Vertex 1 Zcoordinate
    56.21196403866634,        !- Vertex 2 Xcoordinate
    4.422939342446625,        !- Vertex 2 Ycoordinate
    21,                       !- Vertex 2 Zcoordinate
    47.177203787025064,       !- Vertex 3 Xcoordinate
    4.654353759717196,        !- Vertex 3 Ycoordinate
    21,                       !- Vertex 3 Zcoordinate
    47.01996569428593,        !- Vertex 4 Xcoordinate
    0,                        !- Vertex 4 Ycoordinate
    21,                       !- Vertex 4 Zcoordinate
    36.36671029822901,        !- Vertex 5 Xcoordinate
    0.1421513,                !- Vertex 5 Ycoordinate
    21,                       !- Vertex 5 Zcoordinate
    36.42883482342586,        !- Vertex 6 Xcoordinate
    4.7977743106894195,       !- Vertex 6 Ycoordinate
    21,                       !- Vertex 6 Zcoordinate
    19.117301986552775,       !- Vertex 7 Xcoordinate
    5.028793456964195,        !- Vertex 7 Ycoordinate
    21,                       !- Vertex 7 Zcoordinate
    18.961530739907175,       !- Vertex 8 Xcoordinate
    0.4852878,                !- Vertex 8 Ycoordinate
    21,                       !- Vertex 8 Zcoordinate
    8.308274807874113,        !- Vertex 9 Xcoordinate
    0.6274677002802491,       !- Vertex 9 Ycoordinate
    21,                       !- Vertex 9 Zcoordinate
    8.370411821641028,        !- Vertex 10 Xcoordinate
    5.2830910119228065,       !- Vertex 10 Ycoordinate
    21,                       !- Vertex 10 Zcoordinate
    0,                        !- Vertex 11 Xcoordinate
    5.3948114537633955,       !- Vertex 11 Ycoordinate
    21,                       !- Vertex 11 Zcoordinate
    0.1228022,                !- Vertex 12 Xcoordinate
    14.595210153609514,       !- Vertex 12 Ycoordinate
    21;                       !- Vertex 12 Zcoordinate

BUILDINGSURFACE:DETAILED,
    Block Poly_87_Residential_3 Storey 7 Ceiling 0001_1,    !- Name
    Ceiling,                  !- Surface Type
    HSCWZ_Residential_2005_FloorSlab,    !- Construction Name
    Block Poly_87_Residential_3 Storey 7,    !- Zone Name
    ,                         !- Space Name
    Surface,                  !- Outside Boundary Condition
    Block Poly_87_Residential_3 Storey 8 Floor 0001_1,    !- Outside Boundary Condition Object
    NoSun,                    !- Sun Exposure
    NoWind,                   !- Wind Exposure
    autocalculate,            !- View Factor to Ground
    autocalculate,            !- Number of Vertices
    56.21196403866634,        !- Vertex 1 Xcoordinate
    4.422939342446625,        !- Vertex 1 Ycoordinate
    24,                       !- Vertex 1 Zcoordinate
    56.239598526619375,       !- Vertex 2 Xcoordinate
    13.62460599699989,        !- Vertex 2 Ycoordinate
    24,                       !- Vertex 2 Zcoordinate
    0.1228022,                !- Vertex 3 Xcoordinate
    14.595210153609514,       !- Vertex 3 Ycoordinate
    24.000000000000004,       !- Vertex 3 Zcoordinate
    0,                        !- Vertex 4 Xcoordinate
    5.3948114537633955,       !- Vertex 4 Ycoordinate
    24.000000000000004,       !- Vertex 4 Zcoordinate
    8.370411821641028,        !- Vertex 5 Xcoordinate
    5.2830910119228065,       !- Vertex 5 Ycoordinate
    24.000000000000004,       !- Vertex 5 Zcoordinate
    8.308274807874113,        !- Vertex 6 Xcoordinate
    0.6274677002802491,       !- Vertex 6 Ycoordinate
    24.000000000000004,       !- Vertex 6 Zcoordinate
    18.961530739907175,       !- Vertex 7 Xcoordinate
    0.4852878,                !- Vertex 7 Ycoordinate
    24.000000000000004,       !- Vertex 7 Zcoordinate
    19.117301986552775,       !- Vertex 8 Xcoordinate
    5.028793456964195,        !- Vertex 8 Ycoordinate
    24.000000000000004,       !- Vertex 8 Zcoordinate
    36.42883482342586,        !- Vertex 9 Xcoordinate
    4.7977743106894195,       !- Vertex 9 Ycoordinate
    24,                       !- Vertex 9 Zcoordinate
    36.36671029822901,        !- Vertex 10 Xcoordinate
    0.1421513,                !- Vertex 10 Ycoordinate
    24,                       !- Vertex 10 Zcoordinate
    47.01996569428593,        !- Vertex 11 Xcoordinate
    0,                        !- Vertex 11 Ycoordinate
    24,                       !- Vertex 11 Zcoordinate
    47.177203787025064,       !- Vertex 12 Xcoordinate
    4.654353759717196,        !- Vertex 12 Ycoordinate
    24;                       !- Vertex 12 Zcoordinate

BUILDINGSURFACE:DETAILED,
    Block Poly_87_Residential_3 Storey 8 Floor 0001_1,    !- Name
    Floor,                    !- Surface Type
    HSCWZ_Residential_2005_FloorSlab,    !- Construction Name
    Block Poly_87_Residential_3 Storey 8,    !- Zone Name
    ,                         !- Space Name
    Surface,                  !- Outside Boundary Condition
    Block Poly_87_Residential_3 Storey 7 Ceiling 0001_1,    !- Outside Boundary Condition Object
    NoSun,                    !- Sun Exposure
    NoWind,                   !- Wind Exposure
    autocalculate,            !- View Factor to Ground
    autocalculate,            !- Number of Vertices
    56.239598526619375,       !- Vertex 1 Xcoordinate
    13.62460599699989,        !- Vertex 1 Ycoordinate
    24,                       !- Vertex 1 Zcoordinate
    56.21196403866634,        !- Vertex 2 Xcoordinate
    4.422939342446625,        !- Vertex 2 Ycoordinate
    24,                       !- Vertex 2 Zcoordinate
    47.177203787025064,       !- Vertex 3 Xcoordinate
    4.654353759717196,        !- Vertex 3 Ycoordinate
    24,                       !- Vertex 3 Zcoordinate
    47.01996569428593,        !- Vertex 4 Xcoordinate
    0,                        !- Vertex 4 Ycoordinate
    24,                       !- Vertex 4 Zcoordinate
    36.36671029822901,        !- Vertex 5 Xcoordinate
    0.1421513,                !- Vertex 5 Ycoordinate
    24,                       !- Vertex 5 Zcoordinate
    36.42883482342586,        !- Vertex 6 Xcoordinate
    4.7977743106894195,       !- Vertex 6 Ycoordinate
    24,                       !- Vertex 6 Zcoordinate
    19.117301986552775,       !- Vertex 7 Xcoordinate
    5.028793456964195,        !- Vertex 7 Ycoordinate
    24.000000000000004,       !- Vertex 7 Zcoordinate
    18.961530739907175,       !- Vertex 8 Xcoordinate
    0.4852878,                !- Vertex 8 Ycoordinate
    24.000000000000004,       !- Vertex 8 Zcoordinate
    8.308274807874113,        !- Vertex 9 Xcoordinate
    0.6274677002802491,       !- Vertex 9 Ycoordinate
    24.000000000000004,       !- Vertex 9 Zcoordinate
    8.370411821641028,        !- Vertex 10 Xcoordinate
    5.2830910119228065,       !- Vertex 10 Ycoordinate
    24.000000000000004,       !- Vertex 10 Zcoordinate
    0,                        !- Vertex 11 Xcoordinate
    5.3948114537633955,       !- Vertex 11 Ycoordinate
    24.000000000000004,       !- Vertex 11 Zcoordinate
    0.1228022,                !- Vertex 12 Xcoordinate
    14.595210153609514,       !- Vertex 12 Ycoordinate
    24.000000000000004;       !- Vertex 12 Zcoordinate

BUILDINGSURFACE:DETAILED,
    Block Poly_87_Residential_3 Storey 8 Ceiling 0001_1,    !- Name
    Ceiling,                  !- Surface Type
    HSCWZ_Residential_2005_FloorSlab,    !- Construction Name
    Block Poly_87_Residential_3 Storey 8,    !- Zone Name
    ,                         !- Space Name
    Surface,                  !- Outside Boundary Condition
    Block Poly_87_Residential_3 Storey 9 Floor 0001_1,    !- Outside Boundary Condition Object
    NoSun,                    !- Sun Exposure
    NoWind,                   !- Wind Exposure
    autocalculate,            !- View Factor to Ground
    autocalculate,            !- Number of Vertices
    56.21196403866634,        !- Vertex 1 Xcoordinate
    4.422939342446625,        !- Vertex 1 Ycoordinate
    27,                       !- Vertex 1 Zcoordinate
    56.239598526619375,       !- Vertex 2 Xcoordinate
    13.62460599699989,        !- Vertex 2 Ycoordinate
    27,                       !- Vertex 2 Zcoordinate
    0.1228022,                !- Vertex 3 Xcoordinate
    14.595210153609514,       !- Vertex 3 Ycoordinate
    27.000000000000004,       !- Vertex 3 Zcoordinate
    0,                        !- Vertex 4 Xcoordinate
    5.3948114537633955,       !- Vertex 4 Ycoordinate
    27.000000000000004,       !- Vertex 4 Zcoordinate
    8.370411821641028,        !- Vertex 5 Xcoordinate
    5.2830910119228065,       !- Vertex 5 Ycoordinate
    27.000000000000004,       !- Vertex 5 Zcoordinate
    8.308274807874113,        !- Vertex 6 Xcoordinate
    0.6274677002802491,       !- Vertex 6 Ycoordinate
    27.000000000000004,       !- Vertex 6 Zcoordinate
    18.961530739907175,       !- Vertex 7 Xcoordinate
    0.4852878,                !- Vertex 7 Ycoordinate
    27.000000000000004,       !- Vertex 7 Zcoordinate
    19.117301986552775,       !- Vertex 8 Xcoordinate
    5.028793456964195,        !- Vertex 8 Ycoordinate
    27.000000000000004,       !- Vertex 8 Zcoordinate
    36.42883482342586,        !- Vertex 9 Xcoordinate
    4.7977743106894195,       !- Vertex 9 Ycoordinate
    27,                       !- Vertex 9 Zcoordinate
    36.36671029822901,        !- Vertex 10 Xcoordinate
    0.1421513,                !- Vertex 10 Ycoordinate
    27,                       !- Vertex 10 Zcoordinate
    47.01996569428593,        !- Vertex 11 Xcoordinate
    0,                        !- Vertex 11 Ycoordinate
    27,                       !- Vertex 11 Zcoordinate
    47.177203787025064,       !- Vertex 12 Xcoordinate
    4.654353759717196,        !- Vertex 12 Ycoordinate
    27;                       !- Vertex 12 Zcoordinate

BUILDINGSURFACE:DETAILED,
    Block Poly_87_Residential_3 Storey 9 Floor 0001_1,    !- Name
    Floor,                    !- Surface Type
    HSCWZ_Residential_2005_FloorSlab,    !- Construction Name
    Block Poly_87_Residential_3 Storey 9,    !- Zone Name
    ,                         !- Space Name
    Surface,                  !- Outside Boundary Condition
    Block Poly_87_Residential_3 Storey 8 Ceiling 0001_1,    !- Outside Boundary Condition Object
    NoSun,                    !- Sun Exposure
    NoWind,                   !- Wind Exposure
    autocalculate,            !- View Factor to Ground
    autocalculate,            !- Number of Vertices
    56.239598526619375,       !- Vertex 1 Xcoordinate
    13.62460599699989,        !- Vertex 1 Ycoordinate
    27,                       !- Vertex 1 Zcoordinate
    56.21196403866634,        !- Vertex 2 Xcoordinate
    4.422939342446625,        !- Vertex 2 Ycoordinate
    27,                       !- Vertex 2 Zcoordinate
    47.177203787025064,       !- Vertex 3 Xcoordinate
    4.654353759717196,        !- Vertex 3 Ycoordinate
    27,                       !- Vertex 3 Zcoordinate
    47.01996569428593,        !- Vertex 4 Xcoordinate
    0,                        !- Vertex 4 Ycoordinate
    27,                       !- Vertex 4 Zcoordinate
    36.36671029822901,        !- Vertex 5 Xcoordinate
    0.1421513,                !- Vertex 5 Ycoordinate
    27,                       !- Vertex 5 Zcoordinate
    36.42883482342586,        !- Vertex 6 Xcoordinate
    4.7977743106894195,       !- Vertex 6 Ycoordinate
    27,                       !- Vertex 6 Zcoordinate
    19.117301986552775,       !- Vertex 7 Xcoordinate
    5.028793456964195,        !- Vertex 7 Ycoordinate
    27,                       !- Vertex 7 Zcoordinate
    18.961530739907175,       !- Vertex 8 Xcoordinate
    0.4852878,                !- Vertex 8 Ycoordinate
    27,                       !- Vertex 8 Zcoordinate
    8.308274807874113,        !- Vertex 9 Xcoordinate
    0.6274677002802491,       !- Vertex 9 Ycoordinate
    27,                       !- Vertex 9 Zcoordinate
    8.370411821641028,        !- Vertex 10 Xcoordinate
    5.2830910119228065,       !- Vertex 10 Ycoordinate
    27,                       !- Vertex 10 Zcoordinate
    0,                        !- Vertex 11 Xcoordinate
    5.3948114537633955,       !- Vertex 11 Ycoordinate
    27,                       !- Vertex 11 Zcoordinate
    0.1228022,                !- Vertex 12 Xcoordinate
    14.595210153609514,       !- Vertex 12 Ycoordinate
    27;                       !- Vertex 12 Zcoordinate

BUILDINGSURFACE:DETAILED,
    Block Poly_87_Residential_3 Storey 9 Ceiling 0001_1,    !- Name
    Ceiling,                  !- Surface Type
    HSCWZ_Residential_2005_FloorSlab,    !- Construction Name
    Block Poly_87_Residential_3 Storey 9,    !- Zone Name
    ,                         !- Space Name
    Surface,                  !- Outside Boundary Condition
    Block Poly_87_Residential_3 Storey 10 Floor 0001_1,    !- Outside Boundary Condition Object
    NoSun,                    !- Sun Exposure
    NoWind,                   !- Wind Exposure
    autocalculate,            !- View Factor to Ground
    autocalculate,            !- Number of Vertices
    56.21196403866634,        !- Vertex 1 Xcoordinate
    4.422939342446625,        !- Vertex 1 Ycoordinate
    30,                       !- Vertex 1 Zcoordinate
    56.239598526619375,       !- Vertex 2 Xcoordinate
    13.62460599699989,        !- Vertex 2 Ycoordinate
    30,                       !- Vertex 2 Zcoordinate
    0.1228022,                !- Vertex 3 Xcoordinate
    14.595210153609514,       !- Vertex 3 Ycoordinate
    30.000000000000007,       !- Vertex 3 Zcoordinate
    0,                        !- Vertex 4 Xcoordinate
    5.3948114537633955,       !- Vertex 4 Ycoordinate
    30.000000000000007,       !- Vertex 4 Zcoordinate
    8.370411821641028,        !- Vertex 5 Xcoordinate
    5.2830910119228065,       !- Vertex 5 Ycoordinate
    30.000000000000007,       !- Vertex 5 Zcoordinate
    8.308274807874113,        !- Vertex 6 Xcoordinate
    0.6274677002802491,       !- Vertex 6 Ycoordinate
    30.000000000000007,       !- Vertex 6 Zcoordinate
    18.961530739907175,       !- Vertex 7 Xcoordinate
    0.4852878,                !- Vertex 7 Ycoordinate
    30.000000000000004,       !- Vertex 7 Zcoordinate
    19.117301986552775,       !- Vertex 8 Xcoordinate
    5.028793456964195,        !- Vertex 8 Ycoordinate
    30.000000000000004,       !- Vertex 8 Zcoordinate
    36.42883482342586,        !- Vertex 9 Xcoordinate
    4.7977743106894195,       !- Vertex 9 Ycoordinate
    30.000000000000004,       !- Vertex 9 Zcoordinate
    36.36671029822901,        !- Vertex 10 Xcoordinate
    0.1421513,                !- Vertex 10 Ycoordinate
    30.000000000000004,       !- Vertex 10 Zcoordinate
    47.01996569428593,        !- Vertex 11 Xcoordinate
    0,                        !- Vertex 11 Ycoordinate
    30,                       !- Vertex 11 Zcoordinate
    47.177203787025064,       !- Vertex 12 Xcoordinate
    4.654353759717196,        !- Vertex 12 Ycoordinate
    30;                       !- Vertex 12 Zcoordinate

BUILDINGSURFACE:DETAILED,
    Block Poly_87_Residential_3 Storey 10 Floor 0001_1,    !- Name
    Floor,                    !- Surface Type
    HSCWZ_Residential_2005_FloorSlab,    !- Construction Name
    Block Poly_87_Residential_3 Storey 10,    !- Zone Name
    ,                         !- Space Name
    Surface,                  !- Outside Boundary Condition
    Block Poly_87_Residential_3 Storey 9 Ceiling 0001_1,    !- Outside Boundary Condition Object
    NoSun,                    !- Sun Exposure
    NoWind,                   !- Wind Exposure
    autocalculate,            !- View Factor to Ground
    autocalculate,            !- Number of Vertices
    56.239598526619375,       !- Vertex 1 Xcoordinate
    13.62460599699989,        !- Vertex 1 Ycoordinate
    29.999999999999996,       !- Vertex 1 Zcoordinate
    56.21196403866634,        !- Vertex 2 Xcoordinate
    4.422939342446625,        !- Vertex 2 Ycoordinate
    29.999999999999996,       !- Vertex 2 Zcoordinate
    47.177203787025064,       !- Vertex 3 Xcoordinate
    4.654353759717196,        !- Vertex 3 Ycoordinate
    30,                       !- Vertex 3 Zcoordinate
    47.01996569428593,        !- Vertex 4 Xcoordinate
    0,                        !- Vertex 4 Ycoordinate
    30,                       !- Vertex 4 Zcoordinate
    36.36671029822901,        !- Vertex 5 Xcoordinate
    0.1421513,                !- Vertex 5 Ycoordinate
    30,                       !- Vertex 5 Zcoordinate
    36.42883482342586,        !- Vertex 6 Xcoordinate
    4.7977743106894195,       !- Vertex 6 Ycoordinate
    30,                       !- Vertex 6 Zcoordinate
    19.117301986552775,       !- Vertex 7 Xcoordinate
    5.028793456964195,        !- Vertex 7 Ycoordinate
    30.000000000000004,       !- Vertex 7 Zcoordinate
    18.961530739907175,       !- Vertex 8 Xcoordinate
    0.4852878,                !- Vertex 8 Ycoordinate
    30.000000000000004,       !- Vertex 8 Zcoordinate
    8.308274807874113,        !- Vertex 9 Xcoordinate
    0.6274677002802491,       !- Vertex 9 Ycoordinate
    30.000000000000007,       !- Vertex 9 Zcoordinate
    8.370411821641028,        !- Vertex 10 Xcoordinate
    5.2830910119228065,       !- Vertex 10 Ycoordinate
    30.000000000000007,       !- Vertex 10 Zcoordinate
    0,                        !- Vertex 11 Xcoordinate
    5.3948114537633955,       !- Vertex 11 Ycoordinate
    30.000000000000007,       !- Vertex 11 Zcoordinate
    0.1228022,                !- Vertex 12 Xcoordinate
    14.595210153609514,       !- Vertex 12 Ycoordinate
    30.000000000000007;       !- Vertex 12 Zcoordinate

BUILDINGSURFACE:DETAILED,
    Block Poly_87_Residential_3 Storey 10 Ceiling 0001_1,    !- Name
    Ceiling,                  !- Surface Type
    HSCWZ_Residential_2005_FloorSlab,    !- Construction Name
    Block Poly_87_Residential_3 Storey 10,    !- Zone Name
    ,                         !- Space Name
    Surface,                  !- Outside Boundary Condition
    Block Poly_87_Residential_3 Storey 11 Floor 0001_1,    !- Outside Boundary Condition Object
    NoSun,                    !- Sun Exposure
    NoWind,                   !- Wind Exposure
    autocalculate,            !- View Factor to Ground
    autocalculate,            !- Number of Vertices
    56.21196403866634,        !- Vertex 1 Xcoordinate
    4.422939342446625,        !- Vertex 1 Ycoordinate
    33,                       !- Vertex 1 Zcoordinate
    56.239598526619375,       !- Vertex 2 Xcoordinate
    13.62460599699989,        !- Vertex 2 Ycoordinate
    33,                       !- Vertex 2 Zcoordinate
    0.1228022,                !- Vertex 3 Xcoordinate
    14.595210153609514,       !- Vertex 3 Ycoordinate
    33,                       !- Vertex 3 Zcoordinate
    0,                        !- Vertex 4 Xcoordinate
    5.3948114537633955,       !- Vertex 4 Ycoordinate
    33,                       !- Vertex 4 Zcoordinate
    8.370411821641028,        !- Vertex 5 Xcoordinate
    5.2830910119228065,       !- Vertex 5 Ycoordinate
    33,                       !- Vertex 5 Zcoordinate
    8.308274807874113,        !- Vertex 6 Xcoordinate
    0.6274677002802491,       !- Vertex 6 Ycoordinate
    33,                       !- Vertex 6 Zcoordinate
    18.961530739907175,       !- Vertex 7 Xcoordinate
    0.4852878,                !- Vertex 7 Ycoordinate
    33,                       !- Vertex 7 Zcoordinate
    19.117301986552775,       !- Vertex 8 Xcoordinate
    5.028793456964195,        !- Vertex 8 Ycoordinate
    33,                       !- Vertex 8 Zcoordinate
    36.42883482342586,        !- Vertex 9 Xcoordinate
    4.7977743106894195,       !- Vertex 9 Ycoordinate
    33,                       !- Vertex 9 Zcoordinate
    36.36671029822901,        !- Vertex 10 Xcoordinate
    0.1421513,                !- Vertex 10 Ycoordinate
    33,                       !- Vertex 10 Zcoordinate
    47.01996569428593,        !- Vertex 11 Xcoordinate
    0,                        !- Vertex 11 Ycoordinate
    33,                       !- Vertex 11 Zcoordinate
    47.177203787025064,       !- Vertex 12 Xcoordinate
    4.654353759717196,        !- Vertex 12 Ycoordinate
    33;                       !- Vertex 12 Zcoordinate

BUILDINGSURFACE:DETAILED,
    Block Poly_87_Residential_3 Storey 11 Floor 0001_1,    !- Name
    Floor,                    !- Surface Type
    HSCWZ_Residential_2005_FloorSlab,    !- Construction Name
    Block Poly_87_Residential_3 Storey 11,    !- Zone Name
    ,                         !- Space Name
    Surface,                  !- Outside Boundary Condition
    Block Poly_87_Residential_3 Storey 10 Ceiling 0001_1,    !- Outside Boundary Condition Object
    NoSun,                    !- Sun Exposure
    NoWind,                   !- Wind Exposure
    autocalculate,            !- View Factor to Ground
    autocalculate,            !- Number of Vertices
    56.239598526619375,       !- Vertex 1 Xcoordinate
    13.62460599699989,        !- Vertex 1 Ycoordinate
    33,                       !- Vertex 1 Zcoordinate
    56.21196403866634,        !- Vertex 2 Xcoordinate
    4.422939342446625,        !- Vertex 2 Ycoordinate
    33,                       !- Vertex 2 Zcoordinate
    47.177203787025064,       !- Vertex 3 Xcoordinate
    4.654353759717196,        !- Vertex 3 Ycoordinate
    33,                       !- Vertex 3 Zcoordinate
    47.01996569428593,        !- Vertex 4 Xcoordinate
    0,                        !- Vertex 4 Ycoordinate
    33,                       !- Vertex 4 Zcoordinate
    36.36671029822901,        !- Vertex 5 Xcoordinate
    0.1421513,                !- Vertex 5 Ycoordinate
    33,                       !- Vertex 5 Zcoordinate
    36.42883482342586,        !- Vertex 6 Xcoordinate
    4.7977743106894195,       !- Vertex 6 Ycoordinate
    33,                       !- Vertex 6 Zcoordinate
    19.117301986552775,       !- Vertex 7 Xcoordinate
    5.028793456964195,        !- Vertex 7 Ycoordinate
    33,                       !- Vertex 7 Zcoordinate
    18.961530739907175,       !- Vertex 8 Xcoordinate
    0.4852878,                !- Vertex 8 Ycoordinate
    33,                       !- Vertex 8 Zcoordinate
    8.308274807874113,        !- Vertex 9 Xcoordinate
    0.6274677002802491,       !- Vertex 9 Ycoordinate
    33,                       !- Vertex 9 Zcoordinate
    8.370411821641028,        !- Vertex 10 Xcoordinate
    5.2830910119228065,       !- Vertex 10 Ycoordinate
    33,                       !- Vertex 10 Zcoordinate
    0,                        !- Vertex 11 Xcoordinate
    5.3948114537633955,       !- Vertex 11 Ycoordinate
    33,                       !- Vertex 11 Zcoordinate
    0.1228022,                !- Vertex 12 Xcoordinate
    14.595210153609514,       !- Vertex 12 Ycoordinate
    33;                       !- Vertex 12 Zcoordinate

BUILDINGSURFACE:DETAILED,
    Block Poly_87_Residential_3 Storey 11 Ceiling 0001_1,    !- Name
    Ceiling,                  !- Surface Type
    HSCWZ_Residential_2005_FloorSlab,    !- Construction Name
    Block Poly_87_Residential_3 Storey 11,    !- Zone Name
    ,                         !- Space Name
    Surface,                  !- Outside Boundary Condition
    Block Poly_87_Residential_3 Storey 12 Floor 0001_1,    !- Outside Boundary Condition Object
    NoSun,                    !- Sun Exposure
    NoWind,                   !- Wind Exposure
    autocalculate,            !- View Factor to Ground
    autocalculate,            !- Number of Vertices
    56.21196403866634,        !- Vertex 1 Xcoordinate
    4.422939342446625,        !- Vertex 1 Ycoordinate
    36,                       !- Vertex 1 Zcoordinate
    56.239598526619375,       !- Vertex 2 Xcoordinate
    13.62460599699989,        !- Vertex 2 Ycoordinate
    36,                       !- Vertex 2 Zcoordinate
    0.1228022,                !- Vertex 3 Xcoordinate
    14.595210153609514,       !- Vertex 3 Ycoordinate
    36,                       !- Vertex 3 Zcoordinate
    0,                        !- Vertex 4 Xcoordinate
    5.3948114537633955,       !- Vertex 4 Ycoordinate
    36,                       !- Vertex 4 Zcoordinate
    8.370411821641028,        !- Vertex 5 Xcoordinate
    5.2830910119228065,       !- Vertex 5 Ycoordinate
    36,                       !- Vertex 5 Zcoordinate
    8.308274807874113,        !- Vertex 6 Xcoordinate
    0.6274677002802491,       !- Vertex 6 Ycoordinate
    36,                       !- Vertex 6 Zcoordinate
    18.961530739907175,       !- Vertex 7 Xcoordinate
    0.4852878,                !- Vertex 7 Ycoordinate
    36,                       !- Vertex 7 Zcoordinate
    19.117301986552775,       !- Vertex 8 Xcoordinate
    5.028793456964195,        !- Vertex 8 Ycoordinate
    36,                       !- Vertex 8 Zcoordinate
    36.42883482342586,        !- Vertex 9 Xcoordinate
    4.7977743106894195,       !- Vertex 9 Ycoordinate
    36,                       !- Vertex 9 Zcoordinate
    36.36671029822901,        !- Vertex 10 Xcoordinate
    0.1421513,                !- Vertex 10 Ycoordinate
    36,                       !- Vertex 10 Zcoordinate
    47.01996569428593,        !- Vertex 11 Xcoordinate
    0,                        !- Vertex 11 Ycoordinate
    36,                       !- Vertex 11 Zcoordinate
    47.177203787025064,       !- Vertex 12 Xcoordinate
    4.654353759717196,        !- Vertex 12 Ycoordinate
    36;                       !- Vertex 12 Zcoordinate

BUILDINGSURFACE:DETAILED,
    Block Poly_87_Residential_3 Storey 12 Floor 0001_1,    !- Name
    Floor,                    !- Surface Type
    HSCWZ_Residential_2005_FloorSlab,    !- Construction Name
    Block Poly_87_Residential_3 Storey 12,    !- Zone Name
    ,                         !- Space Name
    Surface,                  !- Outside Boundary Condition
    Block Poly_87_Residential_3 Storey 11 Ceiling 0001_1,    !- Outside Boundary Condition Object
    NoSun,                    !- Sun Exposure
    NoWind,                   !- Wind Exposure
    autocalculate,            !- View Factor to Ground
    autocalculate,            !- Number of Vertices
    56.239598526619375,       !- Vertex 1 Xcoordinate
    13.62460599699989,        !- Vertex 1 Ycoordinate
    36,                       !- Vertex 1 Zcoordinate
    56.21196403866634,        !- Vertex 2 Xcoordinate
    4.422939342446625,        !- Vertex 2 Ycoordinate
    36,                       !- Vertex 2 Zcoordinate
    47.177203787025064,       !- Vertex 3 Xcoordinate
    4.654353759717196,        !- Vertex 3 Ycoordinate
    36,                       !- Vertex 3 Zcoordinate
    47.01996569428593,        !- Vertex 4 Xcoordinate
    0,                        !- Vertex 4 Ycoordinate
    36,                       !- Vertex 4 Zcoordinate
    36.36671029822901,        !- Vertex 5 Xcoordinate
    0.1421513,                !- Vertex 5 Ycoordinate
    36,                       !- Vertex 5 Zcoordinate
    36.42883482342586,        !- Vertex 6 Xcoordinate
    4.7977743106894195,       !- Vertex 6 Ycoordinate
    36,                       !- Vertex 6 Zcoordinate
    19.117301986552775,       !- Vertex 7 Xcoordinate
    5.028793456964195,        !- Vertex 7 Ycoordinate
    36,                       !- Vertex 7 Zcoordinate
    18.961530739907175,       !- Vertex 8 Xcoordinate
    0.4852878,                !- Vertex 8 Ycoordinate
    36,                       !- Vertex 8 Zcoordinate
    8.308274807874113,        !- Vertex 9 Xcoordinate
    0.6274677002802491,       !- Vertex 9 Ycoordinate
    36,                       !- Vertex 9 Zcoordinate
    8.370411821641028,        !- Vertex 10 Xcoordinate
    5.2830910119228065,       !- Vertex 10 Ycoordinate
    36,                       !- Vertex 10 Zcoordinate
    0,                        !- Vertex 11 Xcoordinate
    5.3948114537633955,       !- Vertex 11 Ycoordinate
    36,                       !- Vertex 11 Zcoordinate
    0.1228022,                !- Vertex 12 Xcoordinate
    14.595210153609514,       !- Vertex 12 Ycoordinate
    36;                       !- Vertex 12 Zcoordinate

BUILDINGSURFACE:DETAILED,
    Block Poly_87_Residential_3 Storey 12 Ceiling 0001_1,    !- Name
    Ceiling,                  !- Surface Type
    HSCWZ_Residential_2005_FloorSlab,    !- Construction Name
    Block Poly_87_Residential_3 Storey 12,    !- Zone Name
    ,                         !- Space Name
    Surface,                  !- Outside Boundary Condition
    Block Poly_87_Residential_3 Storey 13 Floor 0001_1,    !- Outside Boundary Condition Object
    NoSun,                    !- Sun Exposure
    NoWind,                   !- Wind Exposure
    autocalculate,            !- View Factor to Ground
    autocalculate,            !- Number of Vertices
    56.21196403866634,        !- Vertex 1 Xcoordinate
    4.422939342446625,        !- Vertex 1 Ycoordinate
    39,                       !- Vertex 1 Zcoordinate
    56.239598526619375,       !- Vertex 2 Xcoordinate
    13.62460599699989,        !- Vertex 2 Ycoordinate
    39,                       !- Vertex 2 Zcoordinate
    0.1228022,                !- Vertex 3 Xcoordinate
    14.595210153609514,       !- Vertex 3 Ycoordinate
    39,                       !- Vertex 3 Zcoordinate
    0,                        !- Vertex 4 Xcoordinate
    5.3948114537633955,       !- Vertex 4 Ycoordinate
    39,                       !- Vertex 4 Zcoordinate
    8.370411821641028,        !- Vertex 5 Xcoordinate
    5.2830910119228065,       !- Vertex 5 Ycoordinate
    39,                       !- Vertex 5 Zcoordinate
    8.308274807874113,        !- Vertex 6 Xcoordinate
    0.6274677002802491,       !- Vertex 6 Ycoordinate
    39,                       !- Vertex 6 Zcoordinate
    18.961530739907175,       !- Vertex 7 Xcoordinate
    0.4852878,                !- Vertex 7 Ycoordinate
    39,                       !- Vertex 7 Zcoordinate
    19.117301986552775,       !- Vertex 8 Xcoordinate
    5.028793456964195,        !- Vertex 8 Ycoordinate
    39,                       !- Vertex 8 Zcoordinate
    36.42883482342586,        !- Vertex 9 Xcoordinate
    4.7977743106894195,       !- Vertex 9 Ycoordinate
    39,                       !- Vertex 9 Zcoordinate
    36.36671029822901,        !- Vertex 10 Xcoordinate
    0.1421513,                !- Vertex 10 Ycoordinate
    39,                       !- Vertex 10 Zcoordinate
    47.01996569428593,        !- Vertex 11 Xcoordinate
    0,                        !- Vertex 11 Ycoordinate
    39,                       !- Vertex 11 Zcoordinate
    47.177203787025064,       !- Vertex 12 Xcoordinate
    4.654353759717196,        !- Vertex 12 Ycoordinate
    39;                       !- Vertex 12 Zcoordinate

BUILDINGSURFACE:DETAILED,
    Block Poly_87_Residential_3 Storey 13 Floor 0001_1,    !- Name
    Floor,                    !- Surface Type
    HSCWZ_Residential_2005_FloorSlab,    !- Construction Name
    Block Poly_87_Residential_3 Storey 13,    !- Zone Name
    ,                         !- Space Name
    Surface,                  !- Outside Boundary Condition
    Block Poly_87_Residential_3 Storey 12 Ceiling 0001_1,    !- Outside Boundary Condition Object
    NoSun,                    !- Sun Exposure
    NoWind,                   !- Wind Exposure
    autocalculate,            !- View Factor to Ground
    autocalculate,            !- Number of Vertices
    56.239598526619375,       !- Vertex 1 Xcoordinate
    13.62460599699989,        !- Vertex 1 Ycoordinate
    39,                       !- Vertex 1 Zcoordinate
    56.21196403866634,        !- Vertex 2 Xcoordinate
    4.422939342446625,        !- Vertex 2 Ycoordinate
    39,                       !- Vertex 2 Zcoordinate
    47.177203787025064,       !- Vertex 3 Xcoordinate
    4.654353759717196,        !- Vertex 3 Ycoordinate
    39,                       !- Vertex 3 Zcoordinate
    47.01996569428593,        !- Vertex 4 Xcoordinate
    0,                        !- Vertex 4 Ycoordinate
    39,                       !- Vertex 4 Zcoordinate
    36.36671029822901,        !- Vertex 5 Xcoordinate
    0.1421513,                !- Vertex 5 Ycoordinate
    39,                       !- Vertex 5 Zcoordinate
    36.42883482342586,        !- Vertex 6 Xcoordinate
    4.7977743106894195,       !- Vertex 6 Ycoordinate
    39,                       !- Vertex 6 Zcoordinate
    19.117301986552775,       !- Vertex 7 Xcoordinate
    5.028793456964195,        !- Vertex 7 Ycoordinate
    39,                       !- Vertex 7 Zcoordinate
    18.961530739907175,       !- Vertex 8 Xcoordinate
    0.4852878,                !- Vertex 8 Ycoordinate
    39,                       !- Vertex 8 Zcoordinate
    8.308274807874113,        !- Vertex 9 Xcoordinate
    0.6274677002802491,       !- Vertex 9 Ycoordinate
    39,                       !- Vertex 9 Zcoordinate
    8.370411821641028,        !- Vertex 10 Xcoordinate
    5.2830910119228065,       !- Vertex 10 Ycoordinate
    39,                       !- Vertex 10 Zcoordinate
    0,                        !- Vertex 11 Xcoordinate
    5.3948114537633955,       !- Vertex 11 Ycoordinate
    39,                       !- Vertex 11 Zcoordinate
    0.1228022,                !- Vertex 12 Xcoordinate
    14.595210153609514,       !- Vertex 12 Ycoordinate
    39;                       !- Vertex 12 Zcoordinate

BUILDINGSURFACE:DETAILED,
    Block Poly_87_Residential_3 Storey 13 Ceiling 0001_1,    !- Name
    Ceiling,                  !- Surface Type
    HSCWZ_Residential_2005_FloorSlab,    !- Construction Name
    Block Poly_87_Residential_3 Storey 13,    !- Zone Name
    ,                         !- Space Name
    Surface,                  !- Outside Boundary Condition
    Block Poly_87_Residential_3 Storey 14 Floor 0001_1,    !- Outside Boundary Condition Object
    NoSun,                    !- Sun Exposure
    NoWind,                   !- Wind Exposure
    autocalculate,            !- View Factor to Ground
    autocalculate,            !- Number of Vertices
    56.21196403866634,        !- Vertex 1 Xcoordinate
    4.422939342446625,        !- Vertex 1 Ycoordinate
    42,                       !- Vertex 1 Zcoordinate
    56.239598526619375,       !- Vertex 2 Xcoordinate
    13.62460599699989,        !- Vertex 2 Ycoordinate
    42,                       !- Vertex 2 Zcoordinate
    0.1228022,                !- Vertex 3 Xcoordinate
    14.595210153609514,       !- Vertex 3 Ycoordinate
    42,                       !- Vertex 3 Zcoordinate
    0,                        !- Vertex 4 Xcoordinate
    5.3948114537633955,       !- Vertex 4 Ycoordinate
    42,                       !- Vertex 4 Zcoordinate
    8.370411821641028,        !- Vertex 5 Xcoordinate
    5.2830910119228065,       !- Vertex 5 Ycoordinate
    42,                       !- Vertex 5 Zcoordinate
    8.308274807874113,        !- Vertex 6 Xcoordinate
    0.6274677002802491,       !- Vertex 6 Ycoordinate
    42,                       !- Vertex 6 Zcoordinate
    18.961530739907175,       !- Vertex 7 Xcoordinate
    0.4852878,                !- Vertex 7 Ycoordinate
    42,                       !- Vertex 7 Zcoordinate
    19.117301986552775,       !- Vertex 8 Xcoordinate
    5.028793456964195,        !- Vertex 8 Ycoordinate
    42,                       !- Vertex 8 Zcoordinate
    36.42883482342586,        !- Vertex 9 Xcoordinate
    4.7977743106894195,       !- Vertex 9 Ycoordinate
    42,                       !- Vertex 9 Zcoordinate
    36.36671029822901,        !- Vertex 10 Xcoordinate
    0.1421513,                !- Vertex 10 Ycoordinate
    42,                       !- Vertex 10 Zcoordinate
    47.01996569428593,        !- Vertex 11 Xcoordinate
    0,                        !- Vertex 11 Ycoordinate
    42,                       !- Vertex 11 Zcoordinate
    47.177203787025064,       !- Vertex 12 Xcoordinate
    4.654353759717196,        !- Vertex 12 Ycoordinate
    42;                       !- Vertex 12 Zcoordinate

BUILDINGSURFACE:DETAILED,
    Block Poly_87_Residential_3 Storey 14 Floor 0001_1,    !- Name
    Floor,                    !- Surface Type
    HSCWZ_Residential_2005_FloorSlab,    !- Construction Name
    Block Poly_87_Residential_3 Storey 14,    !- Zone Name
    ,                         !- Space Name
    Surface,                  !- Outside Boundary Condition
    Block Poly_87_Residential_3 Storey 13 Ceiling 0001_1,    !- Outside Boundary Condition Object
    NoSun,                    !- Sun Exposure
    NoWind,                   !- Wind Exposure
    autocalculate,            !- View Factor to Ground
    autocalculate,            !- Number of Vertices
    56.239598526619375,       !- Vertex 1 Xcoordinate
    13.62460599699989,        !- Vertex 1 Ycoordinate
    42,                       !- Vertex 1 Zcoordinate
    56.21196403866634,        !- Vertex 2 Xcoordinate
    4.422939342446625,        !- Vertex 2 Ycoordinate
    42,                       !- Vertex 2 Zcoordinate
    47.177203787025064,       !- Vertex 3 Xcoordinate
    4.654353759717196,        !- Vertex 3 Ycoordinate
    42,                       !- Vertex 3 Zcoordinate
    47.01996569428593,        !- Vertex 4 Xcoordinate
    0,                        !- Vertex 4 Ycoordinate
    42,                       !- Vertex 4 Zcoordinate
    36.36671029822901,        !- Vertex 5 Xcoordinate
    0.1421513,                !- Vertex 5 Ycoordinate
    42,                       !- Vertex 5 Zcoordinate
    36.42883482342586,        !- Vertex 6 Xcoordinate
    4.7977743106894195,       !- Vertex 6 Ycoordinate
    42,                       !- Vertex 6 Zcoordinate
    19.117301986552775,       !- Vertex 7 Xcoordinate
    5.028793456964195,        !- Vertex 7 Ycoordinate
    42,                       !- Vertex 7 Zcoordinate
    18.961530739907175,       !- Vertex 8 Xcoordinate
    0.4852878,                !- Vertex 8 Ycoordinate
    42,                       !- Vertex 8 Zcoordinate
    8.308274807874113,        !- Vertex 9 Xcoordinate
    0.6274677002802491,       !- Vertex 9 Ycoordinate
    42,                       !- Vertex 9 Zcoordinate
    8.370411821641028,        !- Vertex 10 Xcoordinate
    5.2830910119228065,       !- Vertex 10 Ycoordinate
    42,                       !- Vertex 10 Zcoordinate
    0,                        !- Vertex 11 Xcoordinate
    5.3948114537633955,       !- Vertex 11 Ycoordinate
    42,                       !- Vertex 11 Zcoordinate
    0.1228022,                !- Vertex 12 Xcoordinate
    14.595210153609514,       !- Vertex 12 Ycoordinate
    42;                       !- Vertex 12 Zcoordinate

BUILDINGSURFACE:DETAILED,
    Block Poly_87_Residential_3 Storey 14 Ceiling 0001_1,    !- Name
    Ceiling,                  !- Surface Type
    HSCWZ_Residential_2005_FloorSlab,    !- Construction Name
    Block Poly_87_Residential_3 Storey 14,    !- Zone Name
    ,                         !- Space Name
    Surface,                  !- Outside Boundary Condition
    Block Poly_87_Residential_3 Storey 15 Floor 0001_1,    !- Outside Boundary Condition Object
    NoSun,                    !- Sun Exposure
    NoWind,                   !- Wind Exposure
    autocalculate,            !- View Factor to Ground
    autocalculate,            !- Number of Vertices
    56.21196403866634,        !- Vertex 1 Xcoordinate
    4.422939342446625,        !- Vertex 1 Ycoordinate
    45,                       !- Vertex 1 Zcoordinate
    56.239598526619375,       !- Vertex 2 Xcoordinate
    13.62460599699989,        !- Vertex 2 Ycoordinate
    45,                       !- Vertex 2 Zcoordinate
    0.1228022,                !- Vertex 3 Xcoordinate
    14.595210153609514,       !- Vertex 3 Ycoordinate
    45,                       !- Vertex 3 Zcoordinate
    0,                        !- Vertex 4 Xcoordinate
    5.3948114537633955,       !- Vertex 4 Ycoordinate
    45,                       !- Vertex 4 Zcoordinate
    8.370411821641028,        !- Vertex 5 Xcoordinate
    5.2830910119228065,       !- Vertex 5 Ycoordinate
    45,                       !- Vertex 5 Zcoordinate
    8.308274807874113,        !- Vertex 6 Xcoordinate
    0.6274677002802491,       !- Vertex 6 Ycoordinate
    45,                       !- Vertex 6 Zcoordinate
    18.961530739907175,       !- Vertex 7 Xcoordinate
    0.4852878,                !- Vertex 7 Ycoordinate
    45,                       !- Vertex 7 Zcoordinate
    19.117301986552775,       !- Vertex 8 Xcoordinate
    5.028793456964195,        !- Vertex 8 Ycoordinate
    45,                       !- Vertex 8 Zcoordinate
    36.42883482342586,        !- Vertex 9 Xcoordinate
    4.7977743106894195,       !- Vertex 9 Ycoordinate
    45,                       !- Vertex 9 Zcoordinate
    36.36671029822901,        !- Vertex 10 Xcoordinate
    0.1421513,                !- Vertex 10 Ycoordinate
    45,                       !- Vertex 10 Zcoordinate
    47.01996569428593,        !- Vertex 11 Xcoordinate
    0,                        !- Vertex 11 Ycoordinate
    45,                       !- Vertex 11 Zcoordinate
    47.177203787025064,       !- Vertex 12 Xcoordinate
    4.654353759717196,        !- Vertex 12 Ycoordinate
    45;                       !- Vertex 12 Zcoordinate

BUILDINGSURFACE:DETAILED,
    Block Poly_87_Residential_3 Storey 15 Floor 0001_1,    !- Name
    Floor,                    !- Surface Type
    HSCWZ_Residential_2005_FloorSlab,    !- Construction Name
    Block Poly_87_Residential_3 Storey 15,    !- Zone Name
    ,                         !- Space Name
    Surface,                  !- Outside Boundary Condition
    Block Poly_87_Residential_3 Storey 14 Ceiling 0001_1,    !- Outside Boundary Condition Object
    NoSun,                    !- Sun Exposure
    NoWind,                   !- Wind Exposure
    autocalculate,            !- View Factor to Ground
    autocalculate,            !- Number of Vertices
    56.239598526619375,       !- Vertex 1 Xcoordinate
    13.62460599699989,        !- Vertex 1 Ycoordinate
    45,                       !- Vertex 1 Zcoordinate
    56.21196403866634,        !- Vertex 2 Xcoordinate
    4.422939342446625,        !- Vertex 2 Ycoordinate
    45,                       !- Vertex 2 Zcoordinate
    47.177203787025064,       !- Vertex 3 Xcoordinate
    4.654353759717196,        !- Vertex 3 Ycoordinate
    45,                       !- Vertex 3 Zcoordinate
    47.01996569428593,        !- Vertex 4 Xcoordinate
    0,                        !- Vertex 4 Ycoordinate
    45,                       !- Vertex 4 Zcoordinate
    36.36671029822901,        !- Vertex 5 Xcoordinate
    0.1421513,                !- Vertex 5 Ycoordinate
    45,                       !- Vertex 5 Zcoordinate
    36.42883482342586,        !- Vertex 6 Xcoordinate
    4.7977743106894195,       !- Vertex 6 Ycoordinate
    45,                       !- Vertex 6 Zcoordinate
    19.117301986552775,       !- Vertex 7 Xcoordinate
    5.028793456964195,        !- Vertex 7 Ycoordinate
    45,                       !- Vertex 7 Zcoordinate
    18.961530739907175,       !- Vertex 8 Xcoordinate
    0.4852878,                !- Vertex 8 Ycoordinate
    45,                       !- Vertex 8 Zcoordinate
    8.308274807874113,        !- Vertex 9 Xcoordinate
    0.6274677002802491,       !- Vertex 9 Ycoordinate
    45,                       !- Vertex 9 Zcoordinate
    8.370411821641028,        !- Vertex 10 Xcoordinate
    5.2830910119228065,       !- Vertex 10 Ycoordinate
    45,                       !- Vertex 10 Zcoordinate
    0,                        !- Vertex 11 Xcoordinate
    5.3948114537633955,       !- Vertex 11 Ycoordinate
    45,                       !- Vertex 11 Zcoordinate
    0.1228022,                !- Vertex 12 Xcoordinate
    14.595210153609514,       !- Vertex 12 Ycoordinate
    45;                       !- Vertex 12 Zcoordinate

BUILDINGSURFACE:DETAILED,
    Block Poly_87_Residential_3 Storey 15 Ceiling 0001_1,    !- Name
    Ceiling,                  !- Surface Type
    HSCWZ_Residential_2005_FloorSlab,    !- Construction Name
    Block Poly_87_Residential_3 Storey 15,    !- Zone Name
    ,                         !- Space Name
    Surface,                  !- Outside Boundary Condition
    Block Poly_87_Residential_3 Storey 16 Floor 0001_1,    !- Outside Boundary Condition Object
    NoSun,                    !- Sun Exposure
    NoWind,                   !- Wind Exposure
    autocalculate,            !- View Factor to Ground
    autocalculate,            !- Number of Vertices
    56.21196403866634,        !- Vertex 1 Xcoordinate
    4.422939342446625,        !- Vertex 1 Ycoordinate
    48,                       !- Vertex 1 Zcoordinate
    56.239598526619375,       !- Vertex 2 Xcoordinate
    13.62460599699989,        !- Vertex 2 Ycoordinate
    48,                       !- Vertex 2 Zcoordinate
    0.1228022,                !- Vertex 3 Xcoordinate
    14.595210153609514,       !- Vertex 3 Ycoordinate
    48.00000000000001,        !- Vertex 3 Zcoordinate
    0,                        !- Vertex 4 Xcoordinate
    5.3948114537633955,       !- Vertex 4 Ycoordinate
    48.00000000000001,        !- Vertex 4 Zcoordinate
    8.370411821641028,        !- Vertex 5 Xcoordinate
    5.2830910119228065,       !- Vertex 5 Ycoordinate
    48.00000000000001,        !- Vertex 5 Zcoordinate
    8.308274807874113,        !- Vertex 6 Xcoordinate
    0.6274677002802491,       !- Vertex 6 Ycoordinate
    48.00000000000001,        !- Vertex 6 Zcoordinate
    18.961530739907175,       !- Vertex 7 Xcoordinate
    0.4852878,                !- Vertex 7 Ycoordinate
    48.00000000000001,        !- Vertex 7 Zcoordinate
    19.117301986552775,       !- Vertex 8 Xcoordinate
    5.028793456964195,        !- Vertex 8 Ycoordinate
    48.00000000000001,        !- Vertex 8 Zcoordinate
    36.42883482342586,        !- Vertex 9 Xcoordinate
    4.7977743106894195,       !- Vertex 9 Ycoordinate
    48,                       !- Vertex 9 Zcoordinate
    36.36671029822901,        !- Vertex 10 Xcoordinate
    0.1421513,                !- Vertex 10 Ycoordinate
    48,                       !- Vertex 10 Zcoordinate
    47.01996569428593,        !- Vertex 11 Xcoordinate
    0,                        !- Vertex 11 Ycoordinate
    48,                       !- Vertex 11 Zcoordinate
    47.177203787025064,       !- Vertex 12 Xcoordinate
    4.654353759717196,        !- Vertex 12 Ycoordinate
    48;                       !- Vertex 12 Zcoordinate

BUILDINGSURFACE:DETAILED,
    Block Poly_87_Residential_3 Storey 16 Floor 0001_1,    !- Name
    Floor,                    !- Surface Type
    HSCWZ_Residential_2005_FloorSlab,    !- Construction Name
    Block Poly_87_Residential_3 Storey 16,    !- Zone Name
    ,                         !- Space Name
    Surface,                  !- Outside Boundary Condition
    Block Poly_87_Residential_3 Storey 15 Ceiling 0001_1,    !- Outside Boundary Condition Object
    NoSun,                    !- Sun Exposure
    NoWind,                   !- Wind Exposure
    autocalculate,            !- View Factor to Ground
    autocalculate,            !- Number of Vertices
    56.239598526619375,       !- Vertex 1 Xcoordinate
    13.62460599699989,        !- Vertex 1 Ycoordinate
    48,                       !- Vertex 1 Zcoordinate
    56.21196403866634,        !- Vertex 2 Xcoordinate
    4.422939342446625,        !- Vertex 2 Ycoordinate
    48,                       !- Vertex 2 Zcoordinate
    47.177203787025064,       !- Vertex 3 Xcoordinate
    4.654353759717196,        !- Vertex 3 Ycoordinate
    48,                       !- Vertex 3 Zcoordinate
    47.01996569428593,        !- Vertex 4 Xcoordinate
    0,                        !- Vertex 4 Ycoordinate
    48,                       !- Vertex 4 Zcoordinate
    36.36671029822901,        !- Vertex 5 Xcoordinate
    0.1421513,                !- Vertex 5 Ycoordinate
    48,                       !- Vertex 5 Zcoordinate
    36.42883482342586,        !- Vertex 6 Xcoordinate
    4.7977743106894195,       !- Vertex 6 Ycoordinate
    48,                       !- Vertex 6 Zcoordinate
    19.117301986552775,       !- Vertex 7 Xcoordinate
    5.028793456964195,        !- Vertex 7 Ycoordinate
    48.00000000000001,        !- Vertex 7 Zcoordinate
    18.961530739907175,       !- Vertex 8 Xcoordinate
    0.4852878,                !- Vertex 8 Ycoordinate
    48.00000000000001,        !- Vertex 8 Zcoordinate
    8.308274807874113,        !- Vertex 9 Xcoordinate
    0.6274677002802491,       !- Vertex 9 Ycoordinate
    48.00000000000001,        !- Vertex 9 Zcoordinate
    8.370411821641028,        !- Vertex 10 Xcoordinate
    5.2830910119228065,       !- Vertex 10 Ycoordinate
    48.00000000000001,        !- Vertex 10 Zcoordinate
    0,                        !- Vertex 11 Xcoordinate
    5.3948114537633955,       !- Vertex 11 Ycoordinate
    48.00000000000001,        !- Vertex 11 Zcoordinate
    0.1228022,                !- Vertex 12 Xcoordinate
    14.595210153609514,       !- Vertex 12 Ycoordinate
    48.00000000000001;        !- Vertex 12 Zcoordinate

BUILDINGSURFACE:DETAILED,
    Block Poly_87_Residential_3 Storey 16 Ceiling 0001_1,    !- Name
    Ceiling,                  !- Surface Type
    HSCWZ_Residential_2005_FloorSlab,    !- Construction Name
    Block Poly_87_Residential_3 Storey 16,    !- Zone Name
    ,                         !- Space Name
    Surface,                  !- Outside Boundary Condition
    Block Poly_87_Residential_3 Storey 17 Floor 0001_1,    !- Outside Boundary Condition Object
    NoSun,                    !- Sun Exposure
    NoWind,                   !- Wind Exposure
    autocalculate,            !- View Factor to Ground
    autocalculate,            !- Number of Vertices
    56.21196403866634,        !- Vertex 1 Xcoordinate
    4.422939342446625,        !- Vertex 1 Ycoordinate
    51,                       !- Vertex 1 Zcoordinate
    56.239598526619375,       !- Vertex 2 Xcoordinate
    13.62460599699989,        !- Vertex 2 Ycoordinate
    51,                       !- Vertex 2 Zcoordinate
    0.1228022,                !- Vertex 3 Xcoordinate
    14.595210153609514,       !- Vertex 3 Ycoordinate
    51.00000000000001,        !- Vertex 3 Zcoordinate
    0,                        !- Vertex 4 Xcoordinate
    5.3948114537633955,       !- Vertex 4 Ycoordinate
    51.00000000000001,        !- Vertex 4 Zcoordinate
    8.370411821641028,        !- Vertex 5 Xcoordinate
    5.2830910119228065,       !- Vertex 5 Ycoordinate
    51.00000000000001,        !- Vertex 5 Zcoordinate
    8.308274807874113,        !- Vertex 6 Xcoordinate
    0.6274677002802491,       !- Vertex 6 Ycoordinate
    51.00000000000001,        !- Vertex 6 Zcoordinate
    18.961530739907175,       !- Vertex 7 Xcoordinate
    0.4852878,                !- Vertex 7 Ycoordinate
    51.00000000000001,        !- Vertex 7 Zcoordinate
    19.117301986552775,       !- Vertex 8 Xcoordinate
    5.028793456964195,        !- Vertex 8 Ycoordinate
    51.00000000000001,        !- Vertex 8 Zcoordinate
    36.42883482342586,        !- Vertex 9 Xcoordinate
    4.7977743106894195,       !- Vertex 9 Ycoordinate
    51,                       !- Vertex 9 Zcoordinate
    36.36671029822901,        !- Vertex 10 Xcoordinate
    0.1421513,                !- Vertex 10 Ycoordinate
    51,                       !- Vertex 10 Zcoordinate
    47.01996569428593,        !- Vertex 11 Xcoordinate
    0,                        !- Vertex 11 Ycoordinate
    51,                       !- Vertex 11 Zcoordinate
    47.177203787025064,       !- Vertex 12 Xcoordinate
    4.654353759717196,        !- Vertex 12 Ycoordinate
    51;                       !- Vertex 12 Zcoordinate

BUILDINGSURFACE:DETAILED,
    Block Poly_87_Residential_3 Storey 17 Floor 0001_1,    !- Name
    Floor,                    !- Surface Type
    HSCWZ_Residential_2005_FloorSlab,    !- Construction Name
    Block Poly_87_Residential_3 Storey 17,    !- Zone Name
    ,                         !- Space Name
    Surface,                  !- Outside Boundary Condition
    Block Poly_87_Residential_3 Storey 16 Ceiling 0001_1,    !- Outside Boundary Condition Object
    NoSun,                    !- Sun Exposure
    NoWind,                   !- Wind Exposure
    autocalculate,            !- View Factor to Ground
    autocalculate,            !- Number of Vertices
    56.239598526619375,       !- Vertex 1 Xcoordinate
    13.62460599699989,        !- Vertex 1 Ycoordinate
    51,                       !- Vertex 1 Zcoordinate
    56.21196403866634,        !- Vertex 2 Xcoordinate
    4.422939342446625,        !- Vertex 2 Ycoordinate
    51,                       !- Vertex 2 Zcoordinate
    47.177203787025064,       !- Vertex 3 Xcoordinate
    4.654353759717196,        !- Vertex 3 Ycoordinate
    51,                       !- Vertex 3 Zcoordinate
    47.01996569428593,        !- Vertex 4 Xcoordinate
    0,                        !- Vertex 4 Ycoordinate
    51,                       !- Vertex 4 Zcoordinate
    36.36671029822901,        !- Vertex 5 Xcoordinate
    0.1421513,                !- Vertex 5 Ycoordinate
    51,                       !- Vertex 5 Zcoordinate
    36.42883482342586,        !- Vertex 6 Xcoordinate
    4.7977743106894195,       !- Vertex 6 Ycoordinate
    51,                       !- Vertex 6 Zcoordinate
    19.117301986552775,       !- Vertex 7 Xcoordinate
    5.028793456964195,        !- Vertex 7 Ycoordinate
    51.00000000000001,        !- Vertex 7 Zcoordinate
    18.961530739907175,       !- Vertex 8 Xcoordinate
    0.4852878,                !- Vertex 8 Ycoordinate
    51.00000000000001,        !- Vertex 8 Zcoordinate
    8.308274807874113,        !- Vertex 9 Xcoordinate
    0.6274677002802491,       !- Vertex 9 Ycoordinate
    51.00000000000001,        !- Vertex 9 Zcoordinate
    8.370411821641028,        !- Vertex 10 Xcoordinate
    5.2830910119228065,       !- Vertex 10 Ycoordinate
    51.00000000000001,        !- Vertex 10 Zcoordinate
    0,                        !- Vertex 11 Xcoordinate
    5.3948114537633955,       !- Vertex 11 Ycoordinate
    51.00000000000001,        !- Vertex 11 Zcoordinate
    0.1228022,                !- Vertex 12 Xcoordinate
    14.595210153609514,       !- Vertex 12 Ycoordinate
    51.00000000000001;        !- Vertex 12 Zcoordinate

BUILDINGSURFACE:DETAILED,
    Block Poly_87_Residential_3 Storey 17 Ceiling 0001_1,    !- Name
    Ceiling,                  !- Surface Type
    HSCWZ_Residential_2005_FloorSlab,    !- Construction Name
    Block Poly_87_Residential_3 Storey 17,    !- Zone Name
    ,                         !- Space Name
    Surface,                  !- Outside Boundary Condition
    Block Poly_87_Residential_3 Storey 18 Floor 0001_1,    !- Outside Boundary Condition Object
    NoSun,                    !- Sun Exposure
    NoWind,                   !- Wind Exposure
    autocalculate,            !- View Factor to Ground
    autocalculate,            !- Number of Vertices
    56.21196403866634,        !- Vertex 1 Xcoordinate
    4.422939342446625,        !- Vertex 1 Ycoordinate
    54,                       !- Vertex 1 Zcoordinate
    56.239598526619375,       !- Vertex 2 Xcoordinate
    13.62460599699989,        !- Vertex 2 Ycoordinate
    54,                       !- Vertex 2 Zcoordinate
    0.1228022,                !- Vertex 3 Xcoordinate
    14.595210153609514,       !- Vertex 3 Ycoordinate
    54.00000000000001,        !- Vertex 3 Zcoordinate
    0,                        !- Vertex 4 Xcoordinate
    5.3948114537633955,       !- Vertex 4 Ycoordinate
    54.00000000000001,        !- Vertex 4 Zcoordinate
    8.370411821641028,        !- Vertex 5 Xcoordinate
    5.2830910119228065,       !- Vertex 5 Ycoordinate
    54.00000000000001,        !- Vertex 5 Zcoordinate
    8.308274807874113,        !- Vertex 6 Xcoordinate
    0.6274677002802491,       !- Vertex 6 Ycoordinate
    54.00000000000001,        !- Vertex 6 Zcoordinate
    18.961530739907175,       !- Vertex 7 Xcoordinate
    0.4852878,                !- Vertex 7 Ycoordinate
    54.00000000000001,        !- Vertex 7 Zcoordinate
    19.117301986552775,       !- Vertex 8 Xcoordinate
    5.028793456964195,        !- Vertex 8 Ycoordinate
    54.00000000000001,        !- Vertex 8 Zcoordinate
    36.42883482342586,        !- Vertex 9 Xcoordinate
    4.7977743106894195,       !- Vertex 9 Ycoordinate
    54,                       !- Vertex 9 Zcoordinate
    36.36671029822901,        !- Vertex 10 Xcoordinate
    0.1421513,                !- Vertex 10 Ycoordinate
    54,                       !- Vertex 10 Zcoordinate
    47.01996569428593,        !- Vertex 11 Xcoordinate
    0,                        !- Vertex 11 Ycoordinate
    54,                       !- Vertex 11 Zcoordinate
    47.177203787025064,       !- Vertex 12 Xcoordinate
    4.654353759717196,        !- Vertex 12 Ycoordinate
    54;                       !- Vertex 12 Zcoordinate

BUILDINGSURFACE:DETAILED,
    Block Poly_87_Residential_3 Storey 18 Floor 0001_1,    !- Name
    Floor,                    !- Surface Type
    HSCWZ_Residential_2005_FloorSlab,    !- Construction Name
    Block Poly_87_Residential_3 Storey 18,    !- Zone Name
    ,                         !- Space Name
    Surface,                  !- Outside Boundary Condition
    Block Poly_87_Residential_3 Storey 17 Ceiling 0001_1,    !- Outside Boundary Condition Object
    NoSun,                    !- Sun Exposure
    NoWind,                   !- Wind Exposure
    autocalculate,            !- View Factor to Ground
    autocalculate,            !- Number of Vertices
    56.239598526619375,       !- Vertex 1 Xcoordinate
    13.62460599699989,        !- Vertex 1 Ycoordinate
    54,                       !- Vertex 1 Zcoordinate
    56.21196403866634,        !- Vertex 2 Xcoordinate
    4.422939342446625,        !- Vertex 2 Ycoordinate
    54,                       !- Vertex 2 Zcoordinate
    47.177203787025064,       !- Vertex 3 Xcoordinate
    4.654353759717196,        !- Vertex 3 Ycoordinate
    54,                       !- Vertex 3 Zcoordinate
    47.01996569428593,        !- Vertex 4 Xcoordinate
    0,                        !- Vertex 4 Ycoordinate
    54,                       !- Vertex 4 Zcoordinate
    36.36671029822901,        !- Vertex 5 Xcoordinate
    0.1421513,                !- Vertex 5 Ycoordinate
    54,                       !- Vertex 5 Zcoordinate
    36.42883482342586,        !- Vertex 6 Xcoordinate
    4.7977743106894195,       !- Vertex 6 Ycoordinate
    54,                       !- Vertex 6 Zcoordinate
    19.117301986552775,       !- Vertex 7 Xcoordinate
    5.028793456964195,        !- Vertex 7 Ycoordinate
    54,                       !- Vertex 7 Zcoordinate
    18.961530739907175,       !- Vertex 8 Xcoordinate
    0.4852878,                !- Vertex 8 Ycoordinate
    54,                       !- Vertex 8 Zcoordinate
    8.308274807874113,        !- Vertex 9 Xcoordinate
    0.6274677002802491,       !- Vertex 9 Ycoordinate
    54,                       !- Vertex 9 Zcoordinate
    8.370411821641028,        !- Vertex 10 Xcoordinate
    5.2830910119228065,       !- Vertex 10 Ycoordinate
    54,                       !- Vertex 10 Zcoordinate
    0,                        !- Vertex 11 Xcoordinate
    5.3948114537633955,       !- Vertex 11 Ycoordinate
    54,                       !- Vertex 11 Zcoordinate
    0.1228022,                !- Vertex 12 Xcoordinate
    14.595210153609514,       !- Vertex 12 Ycoordinate
    54;                       !- Vertex 12 Zcoordinate

BUILDINGSURFACE:DETAILED,
    Block Poly_87_Residential_3 Storey 18 Ceiling 0001_1,    !- Name
    Ceiling,                  !- Surface Type
    HSCWZ_Residential_2005_FloorSlab,    !- Construction Name
    Block Poly_87_Residential_3 Storey 18,    !- Zone Name
    ,                         !- Space Name
    Surface,                  !- Outside Boundary Condition
    Block Poly_87_Residential_3 Storey 19 Floor 0001_1,    !- Outside Boundary Condition Object
    NoSun,                    !- Sun Exposure
    NoWind,                   !- Wind Exposure
    autocalculate,            !- View Factor to Ground
    autocalculate,            !- Number of Vertices
    56.21196403866634,        !- Vertex 1 Xcoordinate
    4.422939342446625,        !- Vertex 1 Ycoordinate
    57,                       !- Vertex 1 Zcoordinate
    56.239598526619375,       !- Vertex 2 Xcoordinate
    13.62460599699989,        !- Vertex 2 Ycoordinate
    57,                       !- Vertex 2 Zcoordinate
    0.1228022,                !- Vertex 3 Xcoordinate
    14.595210153609514,       !- Vertex 3 Ycoordinate
    57.000000000000014,       !- Vertex 3 Zcoordinate
    0,                        !- Vertex 4 Xcoordinate
    5.3948114537633955,       !- Vertex 4 Ycoordinate
    57.000000000000014,       !- Vertex 4 Zcoordinate
    8.370411821641028,        !- Vertex 5 Xcoordinate
    5.2830910119228065,       !- Vertex 5 Ycoordinate
    57.000000000000014,       !- Vertex 5 Zcoordinate
    8.308274807874113,        !- Vertex 6 Xcoordinate
    0.6274677002802491,       !- Vertex 6 Ycoordinate
    57.000000000000014,       !- Vertex 6 Zcoordinate
    18.961530739907175,       !- Vertex 7 Xcoordinate
    0.4852878,                !- Vertex 7 Ycoordinate
    57.00000000000001,        !- Vertex 7 Zcoordinate
    19.117301986552775,       !- Vertex 8 Xcoordinate
    5.028793456964195,        !- Vertex 8 Ycoordinate
    57.00000000000001,        !- Vertex 8 Zcoordinate
    36.42883482342586,        !- Vertex 9 Xcoordinate
    4.7977743106894195,       !- Vertex 9 Ycoordinate
    57.00000000000001,        !- Vertex 9 Zcoordinate
    36.36671029822901,        !- Vertex 10 Xcoordinate
    0.1421513,                !- Vertex 10 Ycoordinate
    57.00000000000001,        !- Vertex 10 Zcoordinate
    47.01996569428593,        !- Vertex 11 Xcoordinate
    0,                        !- Vertex 11 Ycoordinate
    57,                       !- Vertex 11 Zcoordinate
    47.177203787025064,       !- Vertex 12 Xcoordinate
    4.654353759717196,        !- Vertex 12 Ycoordinate
    57;                       !- Vertex 12 Zcoordinate

BUILDINGSURFACE:DETAILED,
    Block Poly_87_Residential_3 Storey 19 Floor 0001_1,    !- Name
    Floor,                    !- Surface Type
    HSCWZ_Residential_2005_FloorSlab,    !- Construction Name
    Block Poly_87_Residential_3 Storey 19,    !- Zone Name
    ,                         !- Space Name
    Surface,                  !- Outside Boundary Condition
    Block Poly_87_Residential_3 Storey 18 Ceiling 0001_1,    !- Outside Boundary Condition Object
    NoSun,                    !- Sun Exposure
    NoWind,                   !- Wind Exposure
    autocalculate,            !- View Factor to Ground
    autocalculate,            !- Number of Vertices
    56.239598526619375,       !- Vertex 1 Xcoordinate
    13.62460599699989,        !- Vertex 1 Ycoordinate
    56.99999999999999,        !- Vertex 1 Zcoordinate
    56.21196403866634,        !- Vertex 2 Xcoordinate
    4.422939342446625,        !- Vertex 2 Ycoordinate
    56.99999999999999,        !- Vertex 2 Zcoordinate
    47.177203787025064,       !- Vertex 3 Xcoordinate
    4.654353759717196,        !- Vertex 3 Ycoordinate
    57,                       !- Vertex 3 Zcoordinate
    47.01996569428593,        !- Vertex 4 Xcoordinate
    0,                        !- Vertex 4 Ycoordinate
    57,                       !- Vertex 4 Zcoordinate
    36.36671029822901,        !- Vertex 5 Xcoordinate
    0.1421513,                !- Vertex 5 Ycoordinate
    57,                       !- Vertex 5 Zcoordinate
    36.42883482342586,        !- Vertex 6 Xcoordinate
    4.7977743106894195,       !- Vertex 6 Ycoordinate
    57,                       !- Vertex 6 Zcoordinate
    19.117301986552775,       !- Vertex 7 Xcoordinate
    5.028793456964195,        !- Vertex 7 Ycoordinate
    57.00000000000001,        !- Vertex 7 Zcoordinate
    18.961530739907175,       !- Vertex 8 Xcoordinate
    0.4852878,                !- Vertex 8 Ycoordinate
    57.00000000000001,        !- Vertex 8 Zcoordinate
    8.308274807874113,        !- Vertex 9 Xcoordinate
    0.6274677002802491,       !- Vertex 9 Ycoordinate
    57.000000000000014,       !- Vertex 9 Zcoordinate
    8.370411821641028,        !- Vertex 10 Xcoordinate
    5.2830910119228065,       !- Vertex 10 Ycoordinate
    57.000000000000014,       !- Vertex 10 Zcoordinate
    0,                        !- Vertex 11 Xcoordinate
    5.3948114537633955,       !- Vertex 11 Ycoordinate
    57.000000000000014,       !- Vertex 11 Zcoordinate
    0.1228022,                !- Vertex 12 Xcoordinate
    14.595210153609514,       !- Vertex 12 Ycoordinate
    57.000000000000014;       !- Vertex 12 Zcoordinate

BUILDINGSURFACE:DETAILED,
    Block Poly_87_Residential_3 Storey 19 Ceiling 0001_1,    !- Name
    Ceiling,                  !- Surface Type
    HSCWZ_Residential_2005_FloorSlab,    !- Construction Name
    Block Poly_87_Residential_3 Storey 19,    !- Zone Name
    ,                         !- Space Name
    Surface,                  !- Outside Boundary Condition
    Block Poly_87_Residential_3 Storey 20 Floor 0001_1,    !- Outside Boundary Condition Object
    NoSun,                    !- Sun Exposure
    NoWind,                   !- Wind Exposure
    autocalculate,            !- View Factor to Ground
    autocalculate,            !- Number of Vertices
    56.21196403866634,        !- Vertex 1 Xcoordinate
    4.422939342446625,        !- Vertex 1 Ycoordinate
    60,                       !- Vertex 1 Zcoordinate
    56.239598526619375,       !- Vertex 2 Xcoordinate
    13.62460599699989,        !- Vertex 2 Ycoordinate
    60,                       !- Vertex 2 Zcoordinate
    0.1228022,                !- Vertex 3 Xcoordinate
    14.595210153609514,       !- Vertex 3 Ycoordinate
    60.000000000000014,       !- Vertex 3 Zcoordinate
    0,                        !- Vertex 4 Xcoordinate
    5.3948114537633955,       !- Vertex 4 Ycoordinate
    60.000000000000014,       !- Vertex 4 Zcoordinate
    8.370411821641028,        !- Vertex 5 Xcoordinate
    5.2830910119228065,       !- Vertex 5 Ycoordinate
    60.000000000000014,       !- Vertex 5 Zcoordinate
    8.308274807874113,        !- Vertex 6 Xcoordinate
    0.6274677002802491,       !- Vertex 6 Ycoordinate
    60.000000000000014,       !- Vertex 6 Zcoordinate
    18.961530739907175,       !- Vertex 7 Xcoordinate
    0.4852878,                !- Vertex 7 Ycoordinate
    60.00000000000001,        !- Vertex 7 Zcoordinate
    19.117301986552775,       !- Vertex 8 Xcoordinate
    5.028793456964195,        !- Vertex 8 Ycoordinate
    60.00000000000001,        !- Vertex 8 Zcoordinate
    36.42883482342586,        !- Vertex 9 Xcoordinate
    4.7977743106894195,       !- Vertex 9 Ycoordinate
    60.00000000000001,        !- Vertex 9 Zcoordinate
    36.36671029822901,        !- Vertex 10 Xcoordinate
    0.1421513,                !- Vertex 10 Ycoordinate
    60.00000000000001,        !- Vertex 10 Zcoordinate
    47.01996569428593,        !- Vertex 11 Xcoordinate
    0,                        !- Vertex 11 Ycoordinate
    60,                       !- Vertex 11 Zcoordinate
    47.177203787025064,       !- Vertex 12 Xcoordinate
    4.654353759717196,        !- Vertex 12 Ycoordinate
    60;                       !- Vertex 12 Zcoordinate

BUILDINGSURFACE:DETAILED,
    Block Poly_87_Residential_3 Storey 20 Floor 0001_1,    !- Name
    Floor,                    !- Surface Type
    HSCWZ_Residential_2005_FloorSlab,    !- Construction Name
    Block Poly_87_Residential_3 Storey 20,    !- Zone Name
    ,                         !- Space Name
    Surface,                  !- Outside Boundary Condition
    Block Poly_87_Residential_3 Storey 19 Ceiling 0001_1,    !- Outside Boundary Condition Object
    NoSun,                    !- Sun Exposure
    NoWind,                   !- Wind Exposure
    autocalculate,            !- View Factor to Ground
    autocalculate,            !- Number of Vertices
    56.239598526619375,       !- Vertex 1 Xcoordinate
    13.62460599699989,        !- Vertex 1 Ycoordinate
    59.99999999999999,        !- Vertex 1 Zcoordinate
    56.21196403866634,        !- Vertex 2 Xcoordinate
    4.422939342446625,        !- Vertex 2 Ycoordinate
    59.99999999999999,        !- Vertex 2 Zcoordinate
    47.177203787025064,       !- Vertex 3 Xcoordinate
    4.654353759717196,        !- Vertex 3 Ycoordinate
    60,                       !- Vertex 3 Zcoordinate
    47.01996569428593,        !- Vertex 4 Xcoordinate
    0,                        !- Vertex 4 Ycoordinate
    60,                       !- Vertex 4 Zcoordinate
    36.36671029822901,        !- Vertex 5 Xcoordinate
    0.1421513,                !- Vertex 5 Ycoordinate
    60,                       !- Vertex 5 Zcoordinate
    36.42883482342586,        !- Vertex 6 Xcoordinate
    4.7977743106894195,       !- Vertex 6 Ycoordinate
    60,                       !- Vertex 6 Zcoordinate
    19.117301986552775,       !- Vertex 7 Xcoordinate
    5.028793456964195,        !- Vertex 7 Ycoordinate
    60.00000000000001,        !- Vertex 7 Zcoordinate
    18.961530739907175,       !- Vertex 8 Xcoordinate
    0.4852878,                !- Vertex 8 Ycoordinate
    60.00000000000001,        !- Vertex 8 Zcoordinate
    8.308274807874113,        !- Vertex 9 Xcoordinate
    0.6274677002802491,       !- Vertex 9 Ycoordinate
    60.000000000000014,       !- Vertex 9 Zcoordinate
    8.370411821641028,        !- Vertex 10 Xcoordinate
    5.2830910119228065,       !- Vertex 10 Ycoordinate
    60.000000000000014,       !- Vertex 10 Zcoordinate
    0,                        !- Vertex 11 Xcoordinate
    5.3948114537633955,       !- Vertex 11 Ycoordinate
    60.000000000000014,       !- Vertex 11 Zcoordinate
    0.1228022,                !- Vertex 12 Xcoordinate
    14.595210153609514,       !- Vertex 12 Ycoordinate
    60.000000000000014;       !- Vertex 12 Zcoordinate

BUILDINGSURFACE:DETAILED,
    Block Poly_87_Residential_3 Storey 20 Ceiling 0001_1,    !- Name
    Ceiling,                  !- Surface Type
    HSCWZ_Residential_2005_FloorSlab,    !- Construction Name
    Block Poly_87_Residential_3 Storey 20,    !- Zone Name
    ,                         !- Space Name
    Surface,                  !- Outside Boundary Condition
    Block Poly_87_Residential_3 Storey 21 Floor 0001_1,    !- Outside Boundary Condition Object
    NoSun,                    !- Sun Exposure
    NoWind,                   !- Wind Exposure
    autocalculate,            !- View Factor to Ground
    autocalculate,            !- Number of Vertices
    56.21196403866634,        !- Vertex 1 Xcoordinate
    4.422939342446625,        !- Vertex 1 Ycoordinate
    63,                       !- Vertex 1 Zcoordinate
    56.239598526619375,       !- Vertex 2 Xcoordinate
    13.62460599699989,        !- Vertex 2 Ycoordinate
    63,                       !- Vertex 2 Zcoordinate
    0.1228022,                !- Vertex 3 Xcoordinate
    14.595210153609514,       !- Vertex 3 Ycoordinate
    63.000000000000014,       !- Vertex 3 Zcoordinate
    0,                        !- Vertex 4 Xcoordinate
    5.3948114537633955,       !- Vertex 4 Ycoordinate
    63.000000000000014,       !- Vertex 4 Zcoordinate
    8.370411821641028,        !- Vertex 5 Xcoordinate
    5.2830910119228065,       !- Vertex 5 Ycoordinate
    63.000000000000014,       !- Vertex 5 Zcoordinate
    8.308274807874113,        !- Vertex 6 Xcoordinate
    0.6274677002802491,       !- Vertex 6 Ycoordinate
    63.000000000000014,       !- Vertex 6 Zcoordinate
    18.961530739907175,       !- Vertex 7 Xcoordinate
    0.4852878,                !- Vertex 7 Ycoordinate
    63.00000000000001,        !- Vertex 7 Zcoordinate
    19.117301986552775,       !- Vertex 8 Xcoordinate
    5.028793456964195,        !- Vertex 8 Ycoordinate
    63.00000000000001,        !- Vertex 8 Zcoordinate
    36.42883482342586,        !- Vertex 9 Xcoordinate
    4.7977743106894195,       !- Vertex 9 Ycoordinate
    63.00000000000001,        !- Vertex 9 Zcoordinate
    36.36671029822901,        !- Vertex 10 Xcoordinate
    0.1421513,                !- Vertex 10 Ycoordinate
    63.00000000000001,        !- Vertex 10 Zcoordinate
    47.01996569428593,        !- Vertex 11 Xcoordinate
    0,                        !- Vertex 11 Ycoordinate
    63,                       !- Vertex 11 Zcoordinate
    47.177203787025064,       !- Vertex 12 Xcoordinate
    4.654353759717196,        !- Vertex 12 Ycoordinate
    63;                       !- Vertex 12 Zcoordinate

BUILDINGSURFACE:DETAILED,
    Block Poly_87_Residential_3 Storey 21 Floor 0001_1,    !- Name
    Floor,                    !- Surface Type
    HSCWZ_Residential_2005_FloorSlab,    !- Construction Name
    Block Poly_87_Residential_3 Storey 21,    !- Zone Name
    ,                         !- Space Name
    Surface,                  !- Outside Boundary Condition
    Block Poly_87_Residential_3 Storey 20 Ceiling 0001_1,    !- Outside Boundary Condition Object
    NoSun,                    !- Sun Exposure
    NoWind,                   !- Wind Exposure
    autocalculate,            !- View Factor to Ground
    autocalculate,            !- Number of Vertices
    56.239598526619375,       !- Vertex 1 Xcoordinate
    13.62460599699989,        !- Vertex 1 Ycoordinate
    63,                       !- Vertex 1 Zcoordinate
    56.21196403866634,        !- Vertex 2 Xcoordinate
    4.422939342446625,        !- Vertex 2 Ycoordinate
    63,                       !- Vertex 2 Zcoordinate
    47.177203787025064,       !- Vertex 3 Xcoordinate
    4.654353759717196,        !- Vertex 3 Ycoordinate
    63,                       !- Vertex 3 Zcoordinate
    47.01996569428593,        !- Vertex 4 Xcoordinate
    0,                        !- Vertex 4 Ycoordinate
    63,                       !- Vertex 4 Zcoordinate
    36.36671029822901,        !- Vertex 5 Xcoordinate
    0.1421513,                !- Vertex 5 Ycoordinate
    63,                       !- Vertex 5 Zcoordinate
    36.42883482342586,        !- Vertex 6 Xcoordinate
    4.7977743106894195,       !- Vertex 6 Ycoordinate
    63,                       !- Vertex 6 Zcoordinate
    19.117301986552775,       !- Vertex 7 Xcoordinate
    5.028793456964195,        !- Vertex 7 Ycoordinate
    63,                       !- Vertex 7 Zcoordinate
    18.961530739907175,       !- Vertex 8 Xcoordinate
    0.4852878,                !- Vertex 8 Ycoordinate
    63,                       !- Vertex 8 Zcoordinate
    8.308274807874113,        !- Vertex 9 Xcoordinate
    0.6274677002802491,       !- Vertex 9 Ycoordinate
    63,                       !- Vertex 9 Zcoordinate
    8.370411821641028,        !- Vertex 10 Xcoordinate
    5.2830910119228065,       !- Vertex 10 Ycoordinate
    63,                       !- Vertex 10 Zcoordinate
    0,                        !- Vertex 11 Xcoordinate
    5.3948114537633955,       !- Vertex 11 Ycoordinate
    63,                       !- Vertex 11 Zcoordinate
    0.1228022,                !- Vertex 12 Xcoordinate
    14.595210153609514,       !- Vertex 12 Ycoordinate
    63;                       !- Vertex 12 Zcoordinate

FENESTRATIONSURFACE:DETAILED,
    Block Poly_87_Residential_3 Storey 0 Wall 0001 window,    !- Name
    Window,                   !- Surface Type
    HSCWZ_Residential_2005_Win,    !- Construction Name
    Block Poly_87_Residential_3 Storey 0 Wall 0001,    !- Building Surface Name
    ,                         !- Outside Boundary Condition Object
    autocalculate,            !- View Factor to Ground
    ,                         !- Frame and Divider Name
    1,                        !- Multiplier
    autocalculate,            !- Number of Vertices
    8.313601435898395,        !- Vertex 1 Xcoordinate
    0.6273966103503481,       !- Vertex 1 Ycoordinate
    1.95,                     !- Vertex 1 Zcoordinate
    8.313601435898395,        !- Vertex 2 Xcoordinate
    0.6273966103503481,       !- Vertex 2 Ycoordinate
    1.05,                     !- Vertex 2 Zcoordinate
    18.956204112115724,       !- Vertex 3 Xcoordinate
    0.4853589,                !- Vertex 3 Ycoordinate
    1.05,                     !- Vertex 3 Zcoordinate
    18.956204112115724,       !- Vertex 4 Xcoordinate
    0.4853589,                !- Vertex 4 Ycoordinate
    1.95;                     !- Vertex 4 Zcoordinate

FENESTRATIONSURFACE:DETAILED,
    Block Poly_87_Residential_3 Storey 0 Wall 0002 window,    !- Name
    Window,                   !- Surface Type
    HSCWZ_Residential_2005_Win,    !- Construction Name
    Block Poly_87_Residential_3 Storey 0 Wall 0002,    !- Building Surface Name
    ,                         !- Outside Boundary Condition Object
    autocalculate,            !- View Factor to Ground
    ,                         !- Frame and Divider Name
    1,                        !- Multiplier
    autocalculate,            !- Number of Vertices
    18.96160862570512,        !- Vertex 1 Xcoordinate
    0.4875596,                !- Vertex 1 Ycoordinate
    1.95,                     !- Vertex 1 Zcoordinate
    18.96160862570512,        !- Vertex 2 Xcoordinate
    0.4875596,                !- Vertex 2 Ycoordinate
    1.05,                     !- Vertex 2 Zcoordinate
    19.117224101104078,       !- Vertex 3 Xcoordinate
    5.026521704155952,        !- Vertex 3 Ycoordinate
    1.05,                     !- Vertex 3 Zcoordinate
    19.117224101104078,       !- Vertex 4 Xcoordinate
    5.026521704155952,        !- Vertex 4 Ycoordinate
    1.95;                     !- Vertex 4 Zcoordinate

FENESTRATIONSURFACE:DETAILED,
    Block Poly_87_Residential_3 Storey 0 Wall 0003 window,    !- Name
    Window,                   !- Surface Type
    HSCWZ_Residential_2005_Win,    !- Construction Name
    Block Poly_87_Residential_3 Storey 0 Wall 0003,    !- Building Surface Name
    ,                         !- Outside Boundary Condition Object
    autocalculate,            !- View Factor to Ground
    ,                         !- Frame and Divider Name
    1,                        !- Multiplier
    autocalculate,            !- Number of Vertices
    19.12595775314578,        !- Vertex 1 Xcoordinate
    5.028677947391057,        !- Vertex 1 Ycoordinate
    1.95,                     !- Vertex 1 Zcoordinate
    19.12595775314578,        !- Vertex 2 Xcoordinate
    5.028677947391057,        !- Vertex 2 Ycoordinate
    1.05,                     !- Vertex 2 Zcoordinate
    36.42017905706569,        !- Vertex 3 Xcoordinate
    4.797889820262558,        !- Vertex 3 Ycoordinate
    1.05,                     !- Vertex 3 Zcoordinate
    36.42017905706569,        !- Vertex 4 Xcoordinate
    4.797889820262558,        !- Vertex 4 Ycoordinate
    1.95;                     !- Vertex 4 Zcoordinate

FENESTRATIONSURFACE:DETAILED,
    Block Poly_87_Residential_3 Storey 0 Wall 0004 window,    !- Name
    Window,                   !- Surface Type
    HSCWZ_Residential_2005_Win,    !- Construction Name
    Block Poly_87_Residential_3 Storey 0 Wall 0004,    !- Building Surface Name
    ,                         !- Outside Boundary Condition Object
    autocalculate,            !- View Factor to Ground
    ,                         !- Frame and Divider Name
    1,                        !- Multiplier
    autocalculate,            !- Number of Vertices
    36.428803761221644,       !- Vertex 1 Xcoordinate
    4.795446499175858,        !- Vertex 1 Ycoordinate
    1.95,                     !- Vertex 1 Zcoordinate
    36.428803761221644,       !- Vertex 2 Xcoordinate
    4.795446499175858,        !- Vertex 2 Ycoordinate
    1.05,                     !- Vertex 2 Zcoordinate
    36.366741360898885,       !- Vertex 3 Xcoordinate
    0.1444791,                !- Vertex 3 Ycoordinate
    1.05,                     !- Vertex 3 Zcoordinate
    36.366741360898885,       !- Vertex 4 Xcoordinate
    0.1444791,                !- Vertex 4 Ycoordinate
    1.95;                     !- Vertex 4 Zcoordinate

FENESTRATIONSURFACE:DETAILED,
    Block Poly_87_Residential_3 Storey 0 Wall 0005 window,    !- Name
    Window,                   !- Surface Type
    HSCWZ_Residential_2005_Win,    !- Construction Name
    Block Poly_87_Residential_3 Storey 0 Wall 0005,    !- Building Surface Name
    ,                         !- Outside Boundary Condition Object
    autocalculate,            !- View Factor to Ground
    ,                         !- Frame and Divider Name
    1,                        !- Multiplier
    autocalculate,            !- Number of Vertices
    36.37203692633443,        !- Vertex 1 Xcoordinate
    0.1420802,                !- Vertex 1 Ycoordinate
    1.95,                     !- Vertex 1 Zcoordinate
    36.37203692633443,        !- Vertex 2 Xcoordinate
    0.1420802,                !- Vertex 2 Ycoordinate
    1.05,                     !- Vertex 2 Zcoordinate
    47.014639066879,          !- Vertex 3 Xcoordinate
    7.107564178295e-05,       !- Vertex 3 Ycoordinate
    1.05,                     !- Vertex 3 Zcoordinate
    47.014639066879,          !- Vertex 4 Xcoordinate
    7.107564178295e-05,       !- Vertex 4 Ycoordinate
    1.95;                     !- Vertex 4 Zcoordinate

FENESTRATIONSURFACE:DETAILED,
    Block Poly_87_Residential_3 Storey 0 Wall 0006 window,    !- Name
    Window,                   !- Surface Type
    HSCWZ_Residential_2005_Win,    !- Construction Name
    Block Poly_87_Residential_3 Storey 0 Wall 0006,    !- Building Surface Name
    ,                         !- Outside Boundary Condition Object
    autocalculate,            !- View Factor to Ground
    ,                         !- Frame and Divider Name
    1,                        !- Multiplier
    autocalculate,            !- Number of Vertices
    47.02004431362328,        !- Vertex 1 Xcoordinate
    0.002327177,              !- Vertex 1 Ycoordinate
    1.95,                     !- Vertex 1 Zcoordinate
    47.02004431362328,        !- Vertex 2 Xcoordinate
    0.002327177,              !- Vertex 2 Ycoordinate
    1.05,                     !- Vertex 2 Zcoordinate
    47.177125168153374,       !- Vertex 3 Xcoordinate
    4.652026582837338,        !- Vertex 3 Ycoordinate
    1.05,                     !- Vertex 3 Zcoordinate
    47.177125168153374,       !- Vertex 4 Xcoordinate
    4.652026582837338,        !- Vertex 4 Ycoordinate
    1.95;                     !- Vertex 4 Zcoordinate

FENESTRATIONSURFACE:DETAILED,
    Block Poly_87_Residential_3 Storey 0 Wall 0007 window,    !- Name
    Window,                   !- Surface Type
    HSCWZ_Residential_2005_Win,    !- Construction Name
    Block Poly_87_Residential_3 Storey 0 Wall 0007,    !- Building Surface Name
    ,                         !- Outside Boundary Condition Object
    autocalculate,            !- View Factor to Ground
    ,                         !- Frame and Divider Name
    1,                        !- Multiplier
    autocalculate,            !- Number of Vertices
    47.18172116732556,        !- Vertex 1 Xcoordinate
    4.654238052508561,        !- Vertex 1 Ycoordinate
    1.95,                     !- Vertex 1 Zcoordinate
    47.18172116732556,        !- Vertex 2 Xcoordinate
    4.654238052508561,        !- Vertex 2 Ycoordinate
    1.05,                     !- Vertex 2 Zcoordinate
    56.2074466588315,         !- Vertex 3 Xcoordinate
    4.42305504965526,         !- Vertex 3 Ycoordinate
    1.05,                     !- Vertex 3 Zcoordinate
    56.2074466588315,         !- Vertex 4 Xcoordinate
    4.42305504965526,         !- Vertex 4 Ycoordinate
    1.95;                     !- Vertex 4 Zcoordinate

FENESTRATIONSURFACE:DETAILED,
    Block Poly_87_Residential_3 Storey 0 Wall 0008 window,    !- Name
    Window,                   !- Surface Type
    HSCWZ_Residential_2005_Win,    !- Construction Name
    Block Poly_87_Residential_3 Storey 0 Wall 0008,    !- Building Surface Name
    ,                         !- Outside Boundary Condition Object
    autocalculate,            !- View Factor to Ground
    ,                         !- Frame and Divider Name
    1,                        !- Multiplier
    autocalculate,            !- Number of Vertices
    56.211977856201294,       !- Vertex 1 Xcoordinate
    4.427540175773902,        !- Vertex 1 Ycoordinate
    1.95,                     !- Vertex 1 Zcoordinate
    56.211977856201294,       !- Vertex 2 Xcoordinate
    4.427540175773902,        !- Vertex 2 Ycoordinate
    1.05,                     !- Vertex 2 Zcoordinate
    56.23958470955008,        !- Vertex 3 Xcoordinate
    13.620005163672612,       !- Vertex 3 Ycoordinate
    1.05,                     !- Vertex 3 Zcoordinate
    56.23958470955008,        !- Vertex 4 Xcoordinate
    13.620005163672612,       !- Vertex 4 Ycoordinate
    1.95;                     !- Vertex 4 Zcoordinate

FENESTRATIONSURFACE:DETAILED,
    Block Poly_87_Residential_3 Storey 0 Wall 0009 window,    !- Name
    Window,                   !- Surface Type
    HSCWZ_Residential_2005_Win,    !- Construction Name
    Block Poly_87_Residential_3 Storey 0 Wall 0009,    !- Building Surface Name
    ,                         !- Outside Boundary Condition Object
    autocalculate,            !- View Factor to Ground
    ,                         !- Frame and Divider Name
    1,                        !- Multiplier
    autocalculate,            !- Number of Vertices
    56.211540128609165,       !- Vertex 1 Xcoordinate
    13.625091299078194,       !- Vertex 1 Ycoordinate
    1.95,                     !- Vertex 1 Zcoordinate
    56.211540128609165,       !- Vertex 2 Xcoordinate
    13.625091299078194,       !- Vertex 2 Ycoordinate
    1.05,                     !- Vertex 2 Zcoordinate
    0.1508606,                !- Vertex 3 Xcoordinate
    14.59472485153121,        !- Vertex 3 Ycoordinate
    1.05,                     !- Vertex 3 Zcoordinate
    0.1508606,                !- Vertex 4 Xcoordinate
    14.59472485153121,        !- Vertex 4 Ycoordinate
    1.95;                     !- Vertex 4 Zcoordinate

FENESTRATIONSURFACE:DETAILED,
    Block Poly_87_Residential_3 Storey 0 Wall 0010 window,    !- Name
    Window,                   !- Surface Type
    HSCWZ_Residential_2005_Win,    !- Construction Name
    Block Poly_87_Residential_3 Storey 0 Wall 0010,    !- Building Surface Name
    ,                         !- Outside Boundary Condition Object
    autocalculate,            !- View Factor to Ground
    ,                         !- Frame and Divider Name
    1,                        !- Multiplier
    autocalculate,            !- Number of Vertices
    0.1227408,                !- Vertex 1 Xcoordinate
    14.590609954259591,       !- Vertex 1 Ycoordinate
    1.95,                     !- Vertex 1 Zcoordinate
    0.1227408,                !- Vertex 2 Xcoordinate
    14.590609954259591,       !- Vertex 2 Ycoordinate
    1.05,                     !- Vertex 2 Zcoordinate
    6.140108e-05,             !- Vertex 3 Xcoordinate
    5.39941165311332,         !- Vertex 3 Ycoordinate
    1.05,                     !- Vertex 3 Zcoordinate
    6.140108e-05,             !- Vertex 4 Xcoordinate
    5.39941165311332,         !- Vertex 4 Ycoordinate
    1.95;                     !- Vertex 4 Zcoordinate

FENESTRATIONSURFACE:DETAILED,
    Block Poly_87_Residential_3 Storey 0 Wall 0011 window,    !- Name
    Window,                   !- Surface Type
    HSCWZ_Residential_2005_Win,    !- Construction Name
    Block Poly_87_Residential_3 Storey 0 Wall 0011,    !- Building Surface Name
    ,                         !- Outside Boundary Condition Object
    autocalculate,            !- View Factor to Ground
    ,                         !- Frame and Divider Name
    1,                        !- Multiplier
    autocalculate,            !- Number of Vertices
    0.004185206,              !- Vertex 1 Xcoordinate
    5.3947555935424765,       !- Vertex 1 Ycoordinate
    1.95,                     !- Vertex 1 Zcoordinate
    0.004185206,              !- Vertex 2 Xcoordinate
    5.3947555935424765,       !- Vertex 2 Ycoordinate
    1.05,                     !- Vertex 2 Zcoordinate
    8.366226615788385,        !- Vertex 3 Xcoordinate
    5.283146872143727,        !- Vertex 3 Ycoordinate
    1.05,                     !- Vertex 3 Zcoordinate
    8.366226615788385,        !- Vertex 4 Xcoordinate
    5.283146872143727,        !- Vertex 4 Ycoordinate
    1.95;                     !- Vertex 4 Zcoordinate

FENESTRATIONSURFACE:DETAILED,
    Block Poly_87_Residential_3 Storey 0 Wall 0012 window,    !- Name
    Window,                   !- Surface Type
    HSCWZ_Residential_2005_Win,    !- Construction Name
    Block Poly_87_Residential_3 Storey 0 Wall 0012,    !- Building Surface Name
    ,                         !- Outside Boundary Condition Object
    autocalculate,            !- View Factor to Ground
    ,                         !- Frame and Divider Name
    1,                        !- Multiplier
    autocalculate,            !- Number of Vertices
    8.370380753192352,        !- Vertex 1 Xcoordinate
    5.2807632002669855,       !- Vertex 1 Ycoordinate
    1.95,                     !- Vertex 1 Zcoordinate
    8.370380753192352,        !- Vertex 2 Xcoordinate
    5.2807632002669855,       !- Vertex 2 Ycoordinate
    1.05,                     !- Vertex 2 Zcoordinate
    8.308305876439205,        !- Vertex 3 Xcoordinate
    0.6297955119360705,       !- Vertex 3 Ycoordinate
    1.05,                     !- Vertex 3 Zcoordinate
    8.308305876439205,        !- Vertex 4 Xcoordinate
    0.6297955119360705,       !- Vertex 4 Ycoordinate
    1.95;                     !- Vertex 4 Zcoordinate

FENESTRATIONSURFACE:DETAILED,
    Block Poly_87_Residential_3 Storey 1 Wall 0001 window,    !- Name
    Window,                   !- Surface Type
    HSCWZ_Residential_2005_Win,    !- Construction Name
    Block Poly_87_Residential_3 Storey 1 Wall 0001,    !- Building Surface Name
    ,                         !- Outside Boundary Condition Object
    autocalculate,            !- View Factor to Ground
    ,                         !- Frame and Divider Name
    1,                        !- Multiplier
    autocalculate,            !- Number of Vertices
    8.313601435898395,        !- Vertex 1 Xcoordinate
    0.6273966103503481,       !- Vertex 1 Ycoordinate
    4.95,                     !- Vertex 1 Zcoordinate
    8.313601435898395,        !- Vertex 2 Xcoordinate
    0.6273966103503481,       !- Vertex 2 Ycoordinate
    4.05,                     !- Vertex 2 Zcoordinate
    18.956204112115724,       !- Vertex 3 Xcoordinate
    0.4853589,                !- Vertex 3 Ycoordinate
    4.05,                     !- Vertex 3 Zcoordinate
    18.956204112115724,       !- Vertex 4 Xcoordinate
    0.4853589,                !- Vertex 4 Ycoordinate
    4.95;                     !- Vertex 4 Zcoordinate

FENESTRATIONSURFACE:DETAILED,
    Block Poly_87_Residential_3 Storey 1 Wall 0002 window,    !- Name
    Window,                   !- Surface Type
    HSCWZ_Residential_2005_Win,    !- Construction Name
    Block Poly_87_Residential_3 Storey 1 Wall 0002,    !- Building Surface Name
    ,                         !- Outside Boundary Condition Object
    autocalculate,            !- View Factor to Ground
    ,                         !- Frame and Divider Name
    1,                        !- Multiplier
    autocalculate,            !- Number of Vertices
    18.96160862570512,        !- Vertex 1 Xcoordinate
    0.4875596,                !- Vertex 1 Ycoordinate
    4.95,                     !- Vertex 1 Zcoordinate
    18.96160862570512,        !- Vertex 2 Xcoordinate
    0.4875596,                !- Vertex 2 Ycoordinate
    4.05,                     !- Vertex 2 Zcoordinate
    19.117224101104078,       !- Vertex 3 Xcoordinate
    5.026521704155952,        !- Vertex 3 Ycoordinate
    4.05,                     !- Vertex 3 Zcoordinate
    19.117224101104078,       !- Vertex 4 Xcoordinate
    5.026521704155952,        !- Vertex 4 Ycoordinate
    4.95;                     !- Vertex 4 Zcoordinate

FENESTRATIONSURFACE:DETAILED,
    Block Poly_87_Residential_3 Storey 1 Wall 0003 window,    !- Name
    Window,                   !- Surface Type
    HSCWZ_Residential_2005_Win,    !- Construction Name
    Block Poly_87_Residential_3 Storey 1 Wall 0003,    !- Building Surface Name
    ,                         !- Outside Boundary Condition Object
    autocalculate,            !- View Factor to Ground
    ,                         !- Frame and Divider Name
    1,                        !- Multiplier
    autocalculate,            !- Number of Vertices
    19.12595775314578,        !- Vertex 1 Xcoordinate
    5.028677947391057,        !- Vertex 1 Ycoordinate
    4.95,                     !- Vertex 1 Zcoordinate
    19.12595775314578,        !- Vertex 2 Xcoordinate
    5.028677947391057,        !- Vertex 2 Ycoordinate
    4.05,                     !- Vertex 2 Zcoordinate
    36.42017905706569,        !- Vertex 3 Xcoordinate
    4.797889820262558,        !- Vertex 3 Ycoordinate
    4.05,                     !- Vertex 3 Zcoordinate
    36.42017905706569,        !- Vertex 4 Xcoordinate
    4.797889820262558,        !- Vertex 4 Ycoordinate
    4.95;                     !- Vertex 4 Zcoordinate

FENESTRATIONSURFACE:DETAILED,
    Block Poly_87_Residential_3 Storey 1 Wall 0004 window,    !- Name
    Window,                   !- Surface Type
    HSCWZ_Residential_2005_Win,    !- Construction Name
    Block Poly_87_Residential_3 Storey 1 Wall 0004,    !- Building Surface Name
    ,                         !- Outside Boundary Condition Object
    autocalculate,            !- View Factor to Ground
    ,                         !- Frame and Divider Name
    1,                        !- Multiplier
    autocalculate,            !- Number of Vertices
    36.428803761221644,       !- Vertex 1 Xcoordinate
    4.795446499175858,        !- Vertex 1 Ycoordinate
    4.95,                     !- Vertex 1 Zcoordinate
    36.428803761221644,       !- Vertex 2 Xcoordinate
    4.795446499175858,        !- Vertex 2 Ycoordinate
    4.05,                     !- Vertex 2 Zcoordinate
    36.366741360898885,       !- Vertex 3 Xcoordinate
    0.1444791,                !- Vertex 3 Ycoordinate
    4.05,                     !- Vertex 3 Zcoordinate
    36.366741360898885,       !- Vertex 4 Xcoordinate
    0.1444791,                !- Vertex 4 Ycoordinate
    4.95;                     !- Vertex 4 Zcoordinate

FENESTRATIONSURFACE:DETAILED,
    Block Poly_87_Residential_3 Storey 1 Wall 0005 window,    !- Name
    Window,                   !- Surface Type
    HSCWZ_Residential_2005_Win,    !- Construction Name
    Block Poly_87_Residential_3 Storey 1 Wall 0005,    !- Building Surface Name
    ,                         !- Outside Boundary Condition Object
    autocalculate,            !- View Factor to Ground
    ,                         !- Frame and Divider Name
    1,                        !- Multiplier
    autocalculate,            !- Number of Vertices
    36.37203692633443,        !- Vertex 1 Xcoordinate
    0.1420802,                !- Vertex 1 Ycoordinate
    4.95,                     !- Vertex 1 Zcoordinate
    36.37203692633443,        !- Vertex 2 Xcoordinate
    0.1420802,                !- Vertex 2 Ycoordinate
    4.05,                     !- Vertex 2 Zcoordinate
    47.014639066879,          !- Vertex 3 Xcoordinate
    7.107564178295e-05,       !- Vertex 3 Ycoordinate
    4.05,                     !- Vertex 3 Zcoordinate
    47.014639066879,          !- Vertex 4 Xcoordinate
    7.107564178295e-05,       !- Vertex 4 Ycoordinate
    4.95;                     !- Vertex 4 Zcoordinate

FENESTRATIONSURFACE:DETAILED,
    Block Poly_87_Residential_3 Storey 1 Wall 0006 window,    !- Name
    Window,                   !- Surface Type
    HSCWZ_Residential_2005_Win,    !- Construction Name
    Block Poly_87_Residential_3 Storey 1 Wall 0006,    !- Building Surface Name
    ,                         !- Outside Boundary Condition Object
    autocalculate,            !- View Factor to Ground
    ,                         !- Frame and Divider Name
    1,                        !- Multiplier
    autocalculate,            !- Number of Vertices
    47.02004431362328,        !- Vertex 1 Xcoordinate
    0.002327177,              !- Vertex 1 Ycoordinate
    4.95,                     !- Vertex 1 Zcoordinate
    47.02004431362328,        !- Vertex 2 Xcoordinate
    0.002327177,              !- Vertex 2 Ycoordinate
    4.05,                     !- Vertex 2 Zcoordinate
    47.177125168153374,       !- Vertex 3 Xcoordinate
    4.652026582837338,        !- Vertex 3 Ycoordinate
    4.05,                     !- Vertex 3 Zcoordinate
    47.177125168153374,       !- Vertex 4 Xcoordinate
    4.652026582837338,        !- Vertex 4 Ycoordinate
    4.95;                     !- Vertex 4 Zcoordinate

FENESTRATIONSURFACE:DETAILED,
    Block Poly_87_Residential_3 Storey 1 Wall 0007 window,    !- Name
    Window,                   !- Surface Type
    HSCWZ_Residential_2005_Win,    !- Construction Name
    Block Poly_87_Residential_3 Storey 1 Wall 0007,    !- Building Surface Name
    ,                         !- Outside Boundary Condition Object
    autocalculate,            !- View Factor to Ground
    ,                         !- Frame and Divider Name
    1,                        !- Multiplier
    autocalculate,            !- Number of Vertices
    47.18172116732556,        !- Vertex 1 Xcoordinate
    4.654238052508561,        !- Vertex 1 Ycoordinate
    4.95,                     !- Vertex 1 Zcoordinate
    47.18172116732556,        !- Vertex 2 Xcoordinate
    4.654238052508561,        !- Vertex 2 Ycoordinate
    4.05,                     !- Vertex 2 Zcoordinate
    56.2074466588315,         !- Vertex 3 Xcoordinate
    4.42305504965526,         !- Vertex 3 Ycoordinate
    4.05,                     !- Vertex 3 Zcoordinate
    56.2074466588315,         !- Vertex 4 Xcoordinate
    4.42305504965526,         !- Vertex 4 Ycoordinate
    4.95;                     !- Vertex 4 Zcoordinate

FENESTRATIONSURFACE:DETAILED,
    Block Poly_87_Residential_3 Storey 1 Wall 0008 window,    !- Name
    Window,                   !- Surface Type
    HSCWZ_Residential_2005_Win,    !- Construction Name
    Block Poly_87_Residential_3 Storey 1 Wall 0008,    !- Building Surface Name
    ,                         !- Outside Boundary Condition Object
    autocalculate,            !- View Factor to Ground
    ,                         !- Frame and Divider Name
    1,                        !- Multiplier
    autocalculate,            !- Number of Vertices
    56.211977856201294,       !- Vertex 1 Xcoordinate
    4.427540175773902,        !- Vertex 1 Ycoordinate
    4.95,                     !- Vertex 1 Zcoordinate
    56.211977856201294,       !- Vertex 2 Xcoordinate
    4.427540175773902,        !- Vertex 2 Ycoordinate
    4.05,                     !- Vertex 2 Zcoordinate
    56.23958470955008,        !- Vertex 3 Xcoordinate
    13.620005163672612,       !- Vertex 3 Ycoordinate
    4.05,                     !- Vertex 3 Zcoordinate
    56.23958470955008,        !- Vertex 4 Xcoordinate
    13.620005163672612,       !- Vertex 4 Ycoordinate
    4.95;                     !- Vertex 4 Zcoordinate

FENESTRATIONSURFACE:DETAILED,
    Block Poly_87_Residential_3 Storey 1 Wall 0009 window,    !- Name
    Window,                   !- Surface Type
    HSCWZ_Residential_2005_Win,    !- Construction Name
    Block Poly_87_Residential_3 Storey 1 Wall 0009,    !- Building Surface Name
    ,                         !- Outside Boundary Condition Object
    autocalculate,            !- View Factor to Ground
    ,                         !- Frame and Divider Name
    1,                        !- Multiplier
    autocalculate,            !- Number of Vertices
    56.211540128609165,       !- Vertex 1 Xcoordinate
    13.625091299078194,       !- Vertex 1 Ycoordinate
    4.95,                     !- Vertex 1 Zcoordinate
    56.211540128609165,       !- Vertex 2 Xcoordinate
    13.625091299078194,       !- Vertex 2 Ycoordinate
    4.05,                     !- Vertex 2 Zcoordinate
    0.1508606,                !- Vertex 3 Xcoordinate
    14.59472485153121,        !- Vertex 3 Ycoordinate
    4.05,                     !- Vertex 3 Zcoordinate
    0.1508606,                !- Vertex 4 Xcoordinate
    14.59472485153121,        !- Vertex 4 Ycoordinate
    4.95;                     !- Vertex 4 Zcoordinate

FENESTRATIONSURFACE:DETAILED,
    Block Poly_87_Residential_3 Storey 1 Wall 0010 window,    !- Name
    Window,                   !- Surface Type
    HSCWZ_Residential_2005_Win,    !- Construction Name
    Block Poly_87_Residential_3 Storey 1 Wall 0010,    !- Building Surface Name
    ,                         !- Outside Boundary Condition Object
    autocalculate,            !- View Factor to Ground
    ,                         !- Frame and Divider Name
    1,                        !- Multiplier
    autocalculate,            !- Number of Vertices
    0.1227408,                !- Vertex 1 Xcoordinate
    14.590609954259591,       !- Vertex 1 Ycoordinate
    4.95,                     !- Vertex 1 Zcoordinate
    0.1227408,                !- Vertex 2 Xcoordinate
    14.590609954259591,       !- Vertex 2 Ycoordinate
    4.05,                     !- Vertex 2 Zcoordinate
    6.140108e-05,             !- Vertex 3 Xcoordinate
    5.39941165311332,         !- Vertex 3 Ycoordinate
    4.05,                     !- Vertex 3 Zcoordinate
    6.140108e-05,             !- Vertex 4 Xcoordinate
    5.39941165311332,         !- Vertex 4 Ycoordinate
    4.95;                     !- Vertex 4 Zcoordinate

FENESTRATIONSURFACE:DETAILED,
    Block Poly_87_Residential_3 Storey 1 Wall 0011 window,    !- Name
    Window,                   !- Surface Type
    HSCWZ_Residential_2005_Win,    !- Construction Name
    Block Poly_87_Residential_3 Storey 1 Wall 0011,    !- Building Surface Name
    ,                         !- Outside Boundary Condition Object
    autocalculate,            !- View Factor to Ground
    ,                         !- Frame and Divider Name
    1,                        !- Multiplier
    autocalculate,            !- Number of Vertices
    0.004185206,              !- Vertex 1 Xcoordinate
    5.3947555935424765,       !- Vertex 1 Ycoordinate
    4.95,                     !- Vertex 1 Zcoordinate
    0.004185206,              !- Vertex 2 Xcoordinate
    5.3947555935424765,       !- Vertex 2 Ycoordinate
    4.05,                     !- Vertex 2 Zcoordinate
    8.366226615788385,        !- Vertex 3 Xcoordinate
    5.283146872143727,        !- Vertex 3 Ycoordinate
    4.05,                     !- Vertex 3 Zcoordinate
    8.366226615788385,        !- Vertex 4 Xcoordinate
    5.283146872143727,        !- Vertex 4 Ycoordinate
    4.95;                     !- Vertex 4 Zcoordinate

FENESTRATIONSURFACE:DETAILED,
    Block Poly_87_Residential_3 Storey 1 Wall 0012 window,    !- Name
    Window,                   !- Surface Type
    HSCWZ_Residential_2005_Win,    !- Construction Name
    Block Poly_87_Residential_3 Storey 1 Wall 0012,    !- Building Surface Name
    ,                         !- Outside Boundary Condition Object
    autocalculate,            !- View Factor to Ground
    ,                         !- Frame and Divider Name
    1,                        !- Multiplier
    autocalculate,            !- Number of Vertices
    8.370380753192352,        !- Vertex 1 Xcoordinate
    5.2807632002669855,       !- Vertex 1 Ycoordinate
    4.95,                     !- Vertex 1 Zcoordinate
    8.370380753192352,        !- Vertex 2 Xcoordinate
    5.2807632002669855,       !- Vertex 2 Ycoordinate
    4.05,                     !- Vertex 2 Zcoordinate
    8.308305876439205,        !- Vertex 3 Xcoordinate
    0.6297955119360705,       !- Vertex 3 Ycoordinate
    4.05,                     !- Vertex 3 Zcoordinate
    8.308305876439205,        !- Vertex 4 Xcoordinate
    0.6297955119360705,       !- Vertex 4 Ycoordinate
    4.95;                     !- Vertex 4 Zcoordinate

FENESTRATIONSURFACE:DETAILED,
    Block Poly_87_Residential_3 Storey 2 Wall 0001 window,    !- Name
    Window,                   !- Surface Type
    HSCWZ_Residential_2005_Win,    !- Construction Name
    Block Poly_87_Residential_3 Storey 2 Wall 0001,    !- Building Surface Name
    ,                         !- Outside Boundary Condition Object
    autocalculate,            !- View Factor to Ground
    ,                         !- Frame and Divider Name
    1,                        !- Multiplier
    autocalculate,            !- Number of Vertices
    8.313601435898395,        !- Vertex 1 Xcoordinate
    0.6273966103503481,       !- Vertex 1 Ycoordinate
    7.95,                     !- Vertex 1 Zcoordinate
    8.313601435898395,        !- Vertex 2 Xcoordinate
    0.6273966103503481,       !- Vertex 2 Ycoordinate
    7.05,                     !- Vertex 2 Zcoordinate
    18.956204112115724,       !- Vertex 3 Xcoordinate
    0.4853589,                !- Vertex 3 Ycoordinate
    7.05,                     !- Vertex 3 Zcoordinate
    18.956204112115724,       !- Vertex 4 Xcoordinate
    0.4853589,                !- Vertex 4 Ycoordinate
    7.95;                     !- Vertex 4 Zcoordinate

FENESTRATIONSURFACE:DETAILED,
    Block Poly_87_Residential_3 Storey 2 Wall 0002 window,    !- Name
    Window,                   !- Surface Type
    HSCWZ_Residential_2005_Win,    !- Construction Name
    Block Poly_87_Residential_3 Storey 2 Wall 0002,    !- Building Surface Name
    ,                         !- Outside Boundary Condition Object
    autocalculate,            !- View Factor to Ground
    ,                         !- Frame and Divider Name
    1,                        !- Multiplier
    autocalculate,            !- Number of Vertices
    18.96160862570512,        !- Vertex 1 Xcoordinate
    0.4875596,                !- Vertex 1 Ycoordinate
    7.95,                     !- Vertex 1 Zcoordinate
    18.96160862570512,        !- Vertex 2 Xcoordinate
    0.4875596,                !- Vertex 2 Ycoordinate
    7.05,                     !- Vertex 2 Zcoordinate
    19.117224101104078,       !- Vertex 3 Xcoordinate
    5.026521704155952,        !- Vertex 3 Ycoordinate
    7.05,                     !- Vertex 3 Zcoordinate
    19.117224101104078,       !- Vertex 4 Xcoordinate
    5.026521704155952,        !- Vertex 4 Ycoordinate
    7.95;                     !- Vertex 4 Zcoordinate

FENESTRATIONSURFACE:DETAILED,
    Block Poly_87_Residential_3 Storey 2 Wall 0003 window,    !- Name
    Window,                   !- Surface Type
    HSCWZ_Residential_2005_Win,    !- Construction Name
    Block Poly_87_Residential_3 Storey 2 Wall 0003,    !- Building Surface Name
    ,                         !- Outside Boundary Condition Object
    autocalculate,            !- View Factor to Ground
    ,                         !- Frame and Divider Name
    1,                        !- Multiplier
    autocalculate,            !- Number of Vertices
    19.12595775314578,        !- Vertex 1 Xcoordinate
    5.028677947391057,        !- Vertex 1 Ycoordinate
    7.95,                     !- Vertex 1 Zcoordinate
    19.12595775314578,        !- Vertex 2 Xcoordinate
    5.028677947391057,        !- Vertex 2 Ycoordinate
    7.05,                     !- Vertex 2 Zcoordinate
    36.42017905706569,        !- Vertex 3 Xcoordinate
    4.797889820262558,        !- Vertex 3 Ycoordinate
    7.05,                     !- Vertex 3 Zcoordinate
    36.42017905706569,        !- Vertex 4 Xcoordinate
    4.797889820262558,        !- Vertex 4 Ycoordinate
    7.95;                     !- Vertex 4 Zcoordinate

FENESTRATIONSURFACE:DETAILED,
    Block Poly_87_Residential_3 Storey 2 Wall 0004 window,    !- Name
    Window,                   !- Surface Type
    HSCWZ_Residential_2005_Win,    !- Construction Name
    Block Poly_87_Residential_3 Storey 2 Wall 0004,    !- Building Surface Name
    ,                         !- Outside Boundary Condition Object
    autocalculate,            !- View Factor to Ground
    ,                         !- Frame and Divider Name
    1,                        !- Multiplier
    autocalculate,            !- Number of Vertices
    36.428803761221644,       !- Vertex 1 Xcoordinate
    4.795446499175858,        !- Vertex 1 Ycoordinate
    7.95,                     !- Vertex 1 Zcoordinate
    36.428803761221644,       !- Vertex 2 Xcoordinate
    4.795446499175858,        !- Vertex 2 Ycoordinate
    7.05,                     !- Vertex 2 Zcoordinate
    36.366741360898885,       !- Vertex 3 Xcoordinate
    0.1444791,                !- Vertex 3 Ycoordinate
    7.05,                     !- Vertex 3 Zcoordinate
    36.366741360898885,       !- Vertex 4 Xcoordinate
    0.1444791,                !- Vertex 4 Ycoordinate
    7.95;                     !- Vertex 4 Zcoordinate

FENESTRATIONSURFACE:DETAILED,
    Block Poly_87_Residential_3 Storey 2 Wall 0005 window,    !- Name
    Window,                   !- Surface Type
    HSCWZ_Residential_2005_Win,    !- Construction Name
    Block Poly_87_Residential_3 Storey 2 Wall 0005,    !- Building Surface Name
    ,                         !- Outside Boundary Condition Object
    autocalculate,            !- View Factor to Ground
    ,                         !- Frame and Divider Name
    1,                        !- Multiplier
    autocalculate,            !- Number of Vertices
    36.37203692633443,        !- Vertex 1 Xcoordinate
    0.1420802,                !- Vertex 1 Ycoordinate
    7.95,                     !- Vertex 1 Zcoordinate
    36.37203692633443,        !- Vertex 2 Xcoordinate
    0.1420802,                !- Vertex 2 Ycoordinate
    7.05,                     !- Vertex 2 Zcoordinate
    47.014639066879,          !- Vertex 3 Xcoordinate
    7.107564178295e-05,       !- Vertex 3 Ycoordinate
    7.05,                     !- Vertex 3 Zcoordinate
    47.014639066879,          !- Vertex 4 Xcoordinate
    7.107564178295e-05,       !- Vertex 4 Ycoordinate
    7.95;                     !- Vertex 4 Zcoordinate

FENESTRATIONSURFACE:DETAILED,
    Block Poly_87_Residential_3 Storey 2 Wall 0006 window,    !- Name
    Window,                   !- Surface Type
    HSCWZ_Residential_2005_Win,    !- Construction Name
    Block Poly_87_Residential_3 Storey 2 Wall 0006,    !- Building Surface Name
    ,                         !- Outside Boundary Condition Object
    autocalculate,            !- View Factor to Ground
    ,                         !- Frame and Divider Name
    1,                        !- Multiplier
    autocalculate,            !- Number of Vertices
    47.02004431362328,        !- Vertex 1 Xcoordinate
    0.002327177,              !- Vertex 1 Ycoordinate
    7.95,                     !- Vertex 1 Zcoordinate
    47.02004431362328,        !- Vertex 2 Xcoordinate
    0.002327177,              !- Vertex 2 Ycoordinate
    7.05,                     !- Vertex 2 Zcoordinate
    47.177125168153374,       !- Vertex 3 Xcoordinate
    4.652026582837338,        !- Vertex 3 Ycoordinate
    7.05,                     !- Vertex 3 Zcoordinate
    47.177125168153374,       !- Vertex 4 Xcoordinate
    4.652026582837338,        !- Vertex 4 Ycoordinate
    7.95;                     !- Vertex 4 Zcoordinate

FENESTRATIONSURFACE:DETAILED,
    Block Poly_87_Residential_3 Storey 2 Wall 0007 window,    !- Name
    Window,                   !- Surface Type
    HSCWZ_Residential_2005_Win,    !- Construction Name
    Block Poly_87_Residential_3 Storey 2 Wall 0007,    !- Building Surface Name
    ,                         !- Outside Boundary Condition Object
    autocalculate,            !- View Factor to Ground
    ,                         !- Frame and Divider Name
    1,                        !- Multiplier
    autocalculate,            !- Number of Vertices
    47.18172116732556,        !- Vertex 1 Xcoordinate
    4.654238052508561,        !- Vertex 1 Ycoordinate
    7.95,                     !- Vertex 1 Zcoordinate
    47.18172116732556,        !- Vertex 2 Xcoordinate
    4.654238052508561,        !- Vertex 2 Ycoordinate
    7.05,                     !- Vertex 2 Zcoordinate
    56.2074466588315,         !- Vertex 3 Xcoordinate
    4.42305504965526,         !- Vertex 3 Ycoordinate
    7.05,                     !- Vertex 3 Zcoordinate
    56.2074466588315,         !- Vertex 4 Xcoordinate
    4.42305504965526,         !- Vertex 4 Ycoordinate
    7.95;                     !- Vertex 4 Zcoordinate

FENESTRATIONSURFACE:DETAILED,
    Block Poly_87_Residential_3 Storey 2 Wall 0008 window,    !- Name
    Window,                   !- Surface Type
    HSCWZ_Residential_2005_Win,    !- Construction Name
    Block Poly_87_Residential_3 Storey 2 Wall 0008,    !- Building Surface Name
    ,                         !- Outside Boundary Condition Object
    autocalculate,            !- View Factor to Ground
    ,                         !- Frame and Divider Name
    1,                        !- Multiplier
    autocalculate,            !- Number of Vertices
    56.211977856201294,       !- Vertex 1 Xcoordinate
    4.427540175773902,        !- Vertex 1 Ycoordinate
    7.95,                     !- Vertex 1 Zcoordinate
    56.211977856201294,       !- Vertex 2 Xcoordinate
    4.427540175773902,        !- Vertex 2 Ycoordinate
    7.05,                     !- Vertex 2 Zcoordinate
    56.23958470955008,        !- Vertex 3 Xcoordinate
    13.620005163672612,       !- Vertex 3 Ycoordinate
    7.05,                     !- Vertex 3 Zcoordinate
    56.23958470955008,        !- Vertex 4 Xcoordinate
    13.620005163672612,       !- Vertex 4 Ycoordinate
    7.95;                     !- Vertex 4 Zcoordinate

FENESTRATIONSURFACE:DETAILED,
    Block Poly_87_Residential_3 Storey 2 Wall 0009 window,    !- Name
    Window,                   !- Surface Type
    HSCWZ_Residential_2005_Win,    !- Construction Name
    Block Poly_87_Residential_3 Storey 2 Wall 0009,    !- Building Surface Name
    ,                         !- Outside Boundary Condition Object
    autocalculate,            !- View Factor to Ground
    ,                         !- Frame and Divider Name
    1,                        !- Multiplier
    autocalculate,            !- Number of Vertices
    56.211540128609165,       !- Vertex 1 Xcoordinate
    13.625091299078194,       !- Vertex 1 Ycoordinate
    7.95,                     !- Vertex 1 Zcoordinate
    56.211540128609165,       !- Vertex 2 Xcoordinate
    13.625091299078194,       !- Vertex 2 Ycoordinate
    7.05,                     !- Vertex 2 Zcoordinate
    0.1508606,                !- Vertex 3 Xcoordinate
    14.59472485153121,        !- Vertex 3 Ycoordinate
    7.05,                     !- Vertex 3 Zcoordinate
    0.1508606,                !- Vertex 4 Xcoordinate
    14.59472485153121,        !- Vertex 4 Ycoordinate
    7.95;                     !- Vertex 4 Zcoordinate

FENESTRATIONSURFACE:DETAILED,
    Block Poly_87_Residential_3 Storey 2 Wall 0010 window,    !- Name
    Window,                   !- Surface Type
    HSCWZ_Residential_2005_Win,    !- Construction Name
    Block Poly_87_Residential_3 Storey 2 Wall 0010,    !- Building Surface Name
    ,                         !- Outside Boundary Condition Object
    autocalculate,            !- View Factor to Ground
    ,                         !- Frame and Divider Name
    1,                        !- Multiplier
    autocalculate,            !- Number of Vertices
    0.1227408,                !- Vertex 1 Xcoordinate
    14.590609954259591,       !- Vertex 1 Ycoordinate
    7.95,                     !- Vertex 1 Zcoordinate
    0.1227408,                !- Vertex 2 Xcoordinate
    14.590609954259591,       !- Vertex 2 Ycoordinate
    7.05,                     !- Vertex 2 Zcoordinate
    6.140108e-05,             !- Vertex 3 Xcoordinate
    5.39941165311332,         !- Vertex 3 Ycoordinate
    7.05,                     !- Vertex 3 Zcoordinate
    6.140108e-05,             !- Vertex 4 Xcoordinate
    5.39941165311332,         !- Vertex 4 Ycoordinate
    7.95;                     !- Vertex 4 Zcoordinate

FENESTRATIONSURFACE:DETAILED,
    Block Poly_87_Residential_3 Storey 2 Wall 0011 window,    !- Name
    Window,                   !- Surface Type
    HSCWZ_Residential_2005_Win,    !- Construction Name
    Block Poly_87_Residential_3 Storey 2 Wall 0011,    !- Building Surface Name
    ,                         !- Outside Boundary Condition Object
    autocalculate,            !- View Factor to Ground
    ,                         !- Frame and Divider Name
    1,                        !- Multiplier
    autocalculate,            !- Number of Vertices
    0.004185206,              !- Vertex 1 Xcoordinate
    5.3947555935424765,       !- Vertex 1 Ycoordinate
    7.95,                     !- Vertex 1 Zcoordinate
    0.004185206,              !- Vertex 2 Xcoordinate
    5.3947555935424765,       !- Vertex 2 Ycoordinate
    7.05,                     !- Vertex 2 Zcoordinate
    8.366226615788385,        !- Vertex 3 Xcoordinate
    5.283146872143727,        !- Vertex 3 Ycoordinate
    7.05,                     !- Vertex 3 Zcoordinate
    8.366226615788385,        !- Vertex 4 Xcoordinate
    5.283146872143727,        !- Vertex 4 Ycoordinate
    7.95;                     !- Vertex 4 Zcoordinate

FENESTRATIONSURFACE:DETAILED,
    Block Poly_87_Residential_3 Storey 2 Wall 0012 window,    !- Name
    Window,                   !- Surface Type
    HSCWZ_Residential_2005_Win,    !- Construction Name
    Block Poly_87_Residential_3 Storey 2 Wall 0012,    !- Building Surface Name
    ,                         !- Outside Boundary Condition Object
    autocalculate,            !- View Factor to Ground
    ,                         !- Frame and Divider Name
    1,                        !- Multiplier
    autocalculate,            !- Number of Vertices
    8.370380753192352,        !- Vertex 1 Xcoordinate
    5.2807632002669855,       !- Vertex 1 Ycoordinate
    7.95,                     !- Vertex 1 Zcoordinate
    8.370380753192352,        !- Vertex 2 Xcoordinate
    5.2807632002669855,       !- Vertex 2 Ycoordinate
    7.05,                     !- Vertex 2 Zcoordinate
    8.308305876439205,        !- Vertex 3 Xcoordinate
    0.6297955119360705,       !- Vertex 3 Ycoordinate
    7.05,                     !- Vertex 3 Zcoordinate
    8.308305876439205,        !- Vertex 4 Xcoordinate
    0.6297955119360705,       !- Vertex 4 Ycoordinate
    7.95;                     !- Vertex 4 Zcoordinate

FENESTRATIONSURFACE:DETAILED,
    Block Poly_87_Residential_3 Storey 3 Wall 0001 window,    !- Name
    Window,                   !- Surface Type
    HSCWZ_Residential_2005_Win,    !- Construction Name
    Block Poly_87_Residential_3 Storey 3 Wall 0001,    !- Building Surface Name
    ,                         !- Outside Boundary Condition Object
    autocalculate,            !- View Factor to Ground
    ,                         !- Frame and Divider Name
    1,                        !- Multiplier
    autocalculate,            !- Number of Vertices
    8.313601435898395,        !- Vertex 1 Xcoordinate
    0.6273966103503481,       !- Vertex 1 Ycoordinate
    10.95,                    !- Vertex 1 Zcoordinate
    8.313601435898395,        !- Vertex 2 Xcoordinate
    0.6273966103503481,       !- Vertex 2 Ycoordinate
    10.05,                    !- Vertex 2 Zcoordinate
    18.956204112115724,       !- Vertex 3 Xcoordinate
    0.4853589,                !- Vertex 3 Ycoordinate
    10.05,                    !- Vertex 3 Zcoordinate
    18.956204112115724,       !- Vertex 4 Xcoordinate
    0.4853589,                !- Vertex 4 Ycoordinate
    10.95;                    !- Vertex 4 Zcoordinate

FENESTRATIONSURFACE:DETAILED,
    Block Poly_87_Residential_3 Storey 3 Wall 0002 window,    !- Name
    Window,                   !- Surface Type
    HSCWZ_Residential_2005_Win,    !- Construction Name
    Block Poly_87_Residential_3 Storey 3 Wall 0002,    !- Building Surface Name
    ,                         !- Outside Boundary Condition Object
    autocalculate,            !- View Factor to Ground
    ,                         !- Frame and Divider Name
    1,                        !- Multiplier
    autocalculate,            !- Number of Vertices
    18.96160862570512,        !- Vertex 1 Xcoordinate
    0.4875596,                !- Vertex 1 Ycoordinate
    10.95,                    !- Vertex 1 Zcoordinate
    18.96160862570512,        !- Vertex 2 Xcoordinate
    0.4875596,                !- Vertex 2 Ycoordinate
    10.05,                    !- Vertex 2 Zcoordinate
    19.117224101104078,       !- Vertex 3 Xcoordinate
    5.026521704155952,        !- Vertex 3 Ycoordinate
    10.05,                    !- Vertex 3 Zcoordinate
    19.117224101104078,       !- Vertex 4 Xcoordinate
    5.026521704155952,        !- Vertex 4 Ycoordinate
    10.95;                    !- Vertex 4 Zcoordinate

FENESTRATIONSURFACE:DETAILED,
    Block Poly_87_Residential_3 Storey 3 Wall 0003 window,    !- Name
    Window,                   !- Surface Type
    HSCWZ_Residential_2005_Win,    !- Construction Name
    Block Poly_87_Residential_3 Storey 3 Wall 0003,    !- Building Surface Name
    ,                         !- Outside Boundary Condition Object
    autocalculate,            !- View Factor to Ground
    ,                         !- Frame and Divider Name
    1,                        !- Multiplier
    autocalculate,            !- Number of Vertices
    19.12595775314578,        !- Vertex 1 Xcoordinate
    5.028677947391057,        !- Vertex 1 Ycoordinate
    10.95,                    !- Vertex 1 Zcoordinate
    19.12595775314578,        !- Vertex 2 Xcoordinate
    5.028677947391057,        !- Vertex 2 Ycoordinate
    10.05,                    !- Vertex 2 Zcoordinate
    36.42017905706569,        !- Vertex 3 Xcoordinate
    4.797889820262558,        !- Vertex 3 Ycoordinate
    10.05,                    !- Vertex 3 Zcoordinate
    36.42017905706569,        !- Vertex 4 Xcoordinate
    4.797889820262558,        !- Vertex 4 Ycoordinate
    10.95;                    !- Vertex 4 Zcoordinate

FENESTRATIONSURFACE:DETAILED,
    Block Poly_87_Residential_3 Storey 3 Wall 0004 window,    !- Name
    Window,                   !- Surface Type
    HSCWZ_Residential_2005_Win,    !- Construction Name
    Block Poly_87_Residential_3 Storey 3 Wall 0004,    !- Building Surface Name
    ,                         !- Outside Boundary Condition Object
    autocalculate,            !- View Factor to Ground
    ,                         !- Frame and Divider Name
    1,                        !- Multiplier
    autocalculate,            !- Number of Vertices
    36.428803761221644,       !- Vertex 1 Xcoordinate
    4.795446499175858,        !- Vertex 1 Ycoordinate
    10.95,                    !- Vertex 1 Zcoordinate
    36.428803761221644,       !- Vertex 2 Xcoordinate
    4.795446499175858,        !- Vertex 2 Ycoordinate
    10.05,                    !- Vertex 2 Zcoordinate
    36.366741360898885,       !- Vertex 3 Xcoordinate
    0.1444791,                !- Vertex 3 Ycoordinate
    10.05,                    !- Vertex 3 Zcoordinate
    36.366741360898885,       !- Vertex 4 Xcoordinate
    0.1444791,                !- Vertex 4 Ycoordinate
    10.95;                    !- Vertex 4 Zcoordinate

FENESTRATIONSURFACE:DETAILED,
    Block Poly_87_Residential_3 Storey 3 Wall 0005 window,    !- Name
    Window,                   !- Surface Type
    HSCWZ_Residential_2005_Win,    !- Construction Name
    Block Poly_87_Residential_3 Storey 3 Wall 0005,    !- Building Surface Name
    ,                         !- Outside Boundary Condition Object
    autocalculate,            !- View Factor to Ground
    ,                         !- Frame and Divider Name
    1,                        !- Multiplier
    autocalculate,            !- Number of Vertices
    36.37203692633443,        !- Vertex 1 Xcoordinate
    0.1420802,                !- Vertex 1 Ycoordinate
    10.95,                    !- Vertex 1 Zcoordinate
    36.37203692633443,        !- Vertex 2 Xcoordinate
    0.1420802,                !- Vertex 2 Ycoordinate
    10.05,                    !- Vertex 2 Zcoordinate
    47.014639066879,          !- Vertex 3 Xcoordinate
    7.107564178295e-05,       !- Vertex 3 Ycoordinate
    10.05,                    !- Vertex 3 Zcoordinate
    47.014639066879,          !- Vertex 4 Xcoordinate
    7.107564178295e-05,       !- Vertex 4 Ycoordinate
    10.95;                    !- Vertex 4 Zcoordinate

FENESTRATIONSURFACE:DETAILED,
    Block Poly_87_Residential_3 Storey 3 Wall 0006 window,    !- Name
    Window,                   !- Surface Type
    HSCWZ_Residential_2005_Win,    !- Construction Name
    Block Poly_87_Residential_3 Storey 3 Wall 0006,    !- Building Surface Name
    ,                         !- Outside Boundary Condition Object
    autocalculate,            !- View Factor to Ground
    ,                         !- Frame and Divider Name
    1,                        !- Multiplier
    autocalculate,            !- Number of Vertices
    47.02004431362328,        !- Vertex 1 Xcoordinate
    0.002327177,              !- Vertex 1 Ycoordinate
    10.95,                    !- Vertex 1 Zcoordinate
    47.02004431362328,        !- Vertex 2 Xcoordinate
    0.002327177,              !- Vertex 2 Ycoordinate
    10.05,                    !- Vertex 2 Zcoordinate
    47.177125168153374,       !- Vertex 3 Xcoordinate
    4.652026582837338,        !- Vertex 3 Ycoordinate
    10.05,                    !- Vertex 3 Zcoordinate
    47.177125168153374,       !- Vertex 4 Xcoordinate
    4.652026582837338,        !- Vertex 4 Ycoordinate
    10.95;                    !- Vertex 4 Zcoordinate

FENESTRATIONSURFACE:DETAILED,
    Block Poly_87_Residential_3 Storey 3 Wall 0007 window,    !- Name
    Window,                   !- Surface Type
    HSCWZ_Residential_2005_Win,    !- Construction Name
    Block Poly_87_Residential_3 Storey 3 Wall 0007,    !- Building Surface Name
    ,                         !- Outside Boundary Condition Object
    autocalculate,            !- View Factor to Ground
    ,                         !- Frame and Divider Name
    1,                        !- Multiplier
    autocalculate,            !- Number of Vertices
    47.18172116732556,        !- Vertex 1 Xcoordinate
    4.654238052508561,        !- Vertex 1 Ycoordinate
    10.95,                    !- Vertex 1 Zcoordinate
    47.18172116732556,        !- Vertex 2 Xcoordinate
    4.654238052508561,        !- Vertex 2 Ycoordinate
    10.05,                    !- Vertex 2 Zcoordinate
    56.2074466588315,         !- Vertex 3 Xcoordinate
    4.42305504965526,         !- Vertex 3 Ycoordinate
    10.05,                    !- Vertex 3 Zcoordinate
    56.2074466588315,         !- Vertex 4 Xcoordinate
    4.42305504965526,         !- Vertex 4 Ycoordinate
    10.95;                    !- Vertex 4 Zcoordinate

FENESTRATIONSURFACE:DETAILED,
    Block Poly_87_Residential_3 Storey 3 Wall 0008 window,    !- Name
    Window,                   !- Surface Type
    HSCWZ_Residential_2005_Win,    !- Construction Name
    Block Poly_87_Residential_3 Storey 3 Wall 0008,    !- Building Surface Name
    ,                         !- Outside Boundary Condition Object
    autocalculate,            !- View Factor to Ground
    ,                         !- Frame and Divider Name
    1,                        !- Multiplier
    autocalculate,            !- Number of Vertices
    56.211977856201294,       !- Vertex 1 Xcoordinate
    4.427540175773902,        !- Vertex 1 Ycoordinate
    10.95,                    !- Vertex 1 Zcoordinate
    56.211977856201294,       !- Vertex 2 Xcoordinate
    4.427540175773902,        !- Vertex 2 Ycoordinate
    10.05,                    !- Vertex 2 Zcoordinate
    56.23958470955008,        !- Vertex 3 Xcoordinate
    13.620005163672612,       !- Vertex 3 Ycoordinate
    10.05,                    !- Vertex 3 Zcoordinate
    56.23958470955008,        !- Vertex 4 Xcoordinate
    13.620005163672612,       !- Vertex 4 Ycoordinate
    10.95;                    !- Vertex 4 Zcoordinate

FENESTRATIONSURFACE:DETAILED,
    Block Poly_87_Residential_3 Storey 3 Wall 0009 window,    !- Name
    Window,                   !- Surface Type
    HSCWZ_Residential_2005_Win,    !- Construction Name
    Block Poly_87_Residential_3 Storey 3 Wall 0009,    !- Building Surface Name
    ,                         !- Outside Boundary Condition Object
    autocalculate,            !- View Factor to Ground
    ,                         !- Frame and Divider Name
    1,                        !- Multiplier
    autocalculate,            !- Number of Vertices
    56.211540128609165,       !- Vertex 1 Xcoordinate
    13.625091299078194,       !- Vertex 1 Ycoordinate
    10.95,                    !- Vertex 1 Zcoordinate
    56.211540128609165,       !- Vertex 2 Xcoordinate
    13.625091299078194,       !- Vertex 2 Ycoordinate
    10.05,                    !- Vertex 2 Zcoordinate
    0.1508606,                !- Vertex 3 Xcoordinate
    14.59472485153121,        !- Vertex 3 Ycoordinate
    10.05,                    !- Vertex 3 Zcoordinate
    0.1508606,                !- Vertex 4 Xcoordinate
    14.59472485153121,        !- Vertex 4 Ycoordinate
    10.95;                    !- Vertex 4 Zcoordinate

FENESTRATIONSURFACE:DETAILED,
    Block Poly_87_Residential_3 Storey 3 Wall 0010 window,    !- Name
    Window,                   !- Surface Type
    HSCWZ_Residential_2005_Win,    !- Construction Name
    Block Poly_87_Residential_3 Storey 3 Wall 0010,    !- Building Surface Name
    ,                         !- Outside Boundary Condition Object
    autocalculate,            !- View Factor to Ground
    ,                         !- Frame and Divider Name
    1,                        !- Multiplier
    autocalculate,            !- Number of Vertices
    0.1227408,                !- Vertex 1 Xcoordinate
    14.590609954259591,       !- Vertex 1 Ycoordinate
    10.95,                    !- Vertex 1 Zcoordinate
    0.1227408,                !- Vertex 2 Xcoordinate
    14.590609954259591,       !- Vertex 2 Ycoordinate
    10.05,                    !- Vertex 2 Zcoordinate
    6.140108e-05,             !- Vertex 3 Xcoordinate
    5.39941165311332,         !- Vertex 3 Ycoordinate
    10.05,                    !- Vertex 3 Zcoordinate
    6.140108e-05,             !- Vertex 4 Xcoordinate
    5.39941165311332,         !- Vertex 4 Ycoordinate
    10.95;                    !- Vertex 4 Zcoordinate

FENESTRATIONSURFACE:DETAILED,
    Block Poly_87_Residential_3 Storey 3 Wall 0011 window,    !- Name
    Window,                   !- Surface Type
    HSCWZ_Residential_2005_Win,    !- Construction Name
    Block Poly_87_Residential_3 Storey 3 Wall 0011,    !- Building Surface Name
    ,                         !- Outside Boundary Condition Object
    autocalculate,            !- View Factor to Ground
    ,                         !- Frame and Divider Name
    1,                        !- Multiplier
    autocalculate,            !- Number of Vertices
    0.004185206,              !- Vertex 1 Xcoordinate
    5.3947555935424765,       !- Vertex 1 Ycoordinate
    10.95,                    !- Vertex 1 Zcoordinate
    0.004185206,              !- Vertex 2 Xcoordinate
    5.3947555935424765,       !- Vertex 2 Ycoordinate
    10.05,                    !- Vertex 2 Zcoordinate
    8.366226615788385,        !- Vertex 3 Xcoordinate
    5.283146872143727,        !- Vertex 3 Ycoordinate
    10.05,                    !- Vertex 3 Zcoordinate
    8.366226615788385,        !- Vertex 4 Xcoordinate
    5.283146872143727,        !- Vertex 4 Ycoordinate
    10.95;                    !- Vertex 4 Zcoordinate

FENESTRATIONSURFACE:DETAILED,
    Block Poly_87_Residential_3 Storey 3 Wall 0012 window,    !- Name
    Window,                   !- Surface Type
    HSCWZ_Residential_2005_Win,    !- Construction Name
    Block Poly_87_Residential_3 Storey 3 Wall 0012,    !- Building Surface Name
    ,                         !- Outside Boundary Condition Object
    autocalculate,            !- View Factor to Ground
    ,                         !- Frame and Divider Name
    1,                        !- Multiplier
    autocalculate,            !- Number of Vertices
    8.370380753192352,        !- Vertex 1 Xcoordinate
    5.2807632002669855,       !- Vertex 1 Ycoordinate
    10.95,                    !- Vertex 1 Zcoordinate
    8.370380753192352,        !- Vertex 2 Xcoordinate
    5.2807632002669855,       !- Vertex 2 Ycoordinate
    10.05,                    !- Vertex 2 Zcoordinate
    8.308305876439205,        !- Vertex 3 Xcoordinate
    0.6297955119360705,       !- Vertex 3 Ycoordinate
    10.05,                    !- Vertex 3 Zcoordinate
    8.308305876439205,        !- Vertex 4 Xcoordinate
    0.6297955119360705,       !- Vertex 4 Ycoordinate
    10.95;                    !- Vertex 4 Zcoordinate

FENESTRATIONSURFACE:DETAILED,
    Block Poly_87_Residential_3 Storey 4 Wall 0001 window,    !- Name
    Window,                   !- Surface Type
    HSCWZ_Residential_2005_Win,    !- Construction Name
    Block Poly_87_Residential_3 Storey 4 Wall 0001,    !- Building Surface Name
    ,                         !- Outside Boundary Condition Object
    autocalculate,            !- View Factor to Ground
    ,                         !- Frame and Divider Name
    1,                        !- Multiplier
    autocalculate,            !- Number of Vertices
    8.313601435898395,        !- Vertex 1 Xcoordinate
    0.6273966103503481,       !- Vertex 1 Ycoordinate
    13.95,                    !- Vertex 1 Zcoordinate
    8.313601435898395,        !- Vertex 2 Xcoordinate
    0.6273966103503481,       !- Vertex 2 Ycoordinate
    13.05,                    !- Vertex 2 Zcoordinate
    18.956204112115724,       !- Vertex 3 Xcoordinate
    0.4853589,                !- Vertex 3 Ycoordinate
    13.05,                    !- Vertex 3 Zcoordinate
    18.956204112115724,       !- Vertex 4 Xcoordinate
    0.4853589,                !- Vertex 4 Ycoordinate
    13.95;                    !- Vertex 4 Zcoordinate

FENESTRATIONSURFACE:DETAILED,
    Block Poly_87_Residential_3 Storey 4 Wall 0002 window,    !- Name
    Window,                   !- Surface Type
    HSCWZ_Residential_2005_Win,    !- Construction Name
    Block Poly_87_Residential_3 Storey 4 Wall 0002,    !- Building Surface Name
    ,                         !- Outside Boundary Condition Object
    autocalculate,            !- View Factor to Ground
    ,                         !- Frame and Divider Name
    1,                        !- Multiplier
    autocalculate,            !- Number of Vertices
    18.96160862570512,        !- Vertex 1 Xcoordinate
    0.4875596,                !- Vertex 1 Ycoordinate
    13.95,                    !- Vertex 1 Zcoordinate
    18.96160862570512,        !- Vertex 2 Xcoordinate
    0.4875596,                !- Vertex 2 Ycoordinate
    13.05,                    !- Vertex 2 Zcoordinate
    19.117224101104078,       !- Vertex 3 Xcoordinate
    5.026521704155952,        !- Vertex 3 Ycoordinate
    13.05,                    !- Vertex 3 Zcoordinate
    19.117224101104078,       !- Vertex 4 Xcoordinate
    5.026521704155952,        !- Vertex 4 Ycoordinate
    13.95;                    !- Vertex 4 Zcoordinate

FENESTRATIONSURFACE:DETAILED,
    Block Poly_87_Residential_3 Storey 4 Wall 0003 window,    !- Name
    Window,                   !- Surface Type
    HSCWZ_Residential_2005_Win,    !- Construction Name
    Block Poly_87_Residential_3 Storey 4 Wall 0003,    !- Building Surface Name
    ,                         !- Outside Boundary Condition Object
    autocalculate,            !- View Factor to Ground
    ,                         !- Frame and Divider Name
    1,                        !- Multiplier
    autocalculate,            !- Number of Vertices
    19.12595775314578,        !- Vertex 1 Xcoordinate
    5.028677947391057,        !- Vertex 1 Ycoordinate
    13.95,                    !- Vertex 1 Zcoordinate
    19.12595775314578,        !- Vertex 2 Xcoordinate
    5.028677947391057,        !- Vertex 2 Ycoordinate
    13.05,                    !- Vertex 2 Zcoordinate
    36.42017905706569,        !- Vertex 3 Xcoordinate
    4.797889820262558,        !- Vertex 3 Ycoordinate
    13.05,                    !- Vertex 3 Zcoordinate
    36.42017905706569,        !- Vertex 4 Xcoordinate
    4.797889820262558,        !- Vertex 4 Ycoordinate
    13.95;                    !- Vertex 4 Zcoordinate

FENESTRATIONSURFACE:DETAILED,
    Block Poly_87_Residential_3 Storey 4 Wall 0004 window,    !- Name
    Window,                   !- Surface Type
    HSCWZ_Residential_2005_Win,    !- Construction Name
    Block Poly_87_Residential_3 Storey 4 Wall 0004,    !- Building Surface Name
    ,                         !- Outside Boundary Condition Object
    autocalculate,            !- View Factor to Ground
    ,                         !- Frame and Divider Name
    1,                        !- Multiplier
    autocalculate,            !- Number of Vertices
    36.428803761221644,       !- Vertex 1 Xcoordinate
    4.795446499175858,        !- Vertex 1 Ycoordinate
    13.95,                    !- Vertex 1 Zcoordinate
    36.428803761221644,       !- Vertex 2 Xcoordinate
    4.795446499175858,        !- Vertex 2 Ycoordinate
    13.05,                    !- Vertex 2 Zcoordinate
    36.366741360898885,       !- Vertex 3 Xcoordinate
    0.1444791,                !- Vertex 3 Ycoordinate
    13.05,                    !- Vertex 3 Zcoordinate
    36.366741360898885,       !- Vertex 4 Xcoordinate
    0.1444791,                !- Vertex 4 Ycoordinate
    13.95;                    !- Vertex 4 Zcoordinate

FENESTRATIONSURFACE:DETAILED,
    Block Poly_87_Residential_3 Storey 4 Wall 0005 window,    !- Name
    Window,                   !- Surface Type
    HSCWZ_Residential_2005_Win,    !- Construction Name
    Block Poly_87_Residential_3 Storey 4 Wall 0005,    !- Building Surface Name
    ,                         !- Outside Boundary Condition Object
    autocalculate,            !- View Factor to Ground
    ,                         !- Frame and Divider Name
    1,                        !- Multiplier
    autocalculate,            !- Number of Vertices
    36.37203692633443,        !- Vertex 1 Xcoordinate
    0.1420802,                !- Vertex 1 Ycoordinate
    13.95,                    !- Vertex 1 Zcoordinate
    36.37203692633443,        !- Vertex 2 Xcoordinate
    0.1420802,                !- Vertex 2 Ycoordinate
    13.05,                    !- Vertex 2 Zcoordinate
    47.014639066879,          !- Vertex 3 Xcoordinate
    7.107564178295e-05,       !- Vertex 3 Ycoordinate
    13.05,                    !- Vertex 3 Zcoordinate
    47.014639066879,          !- Vertex 4 Xcoordinate
    7.107564178295e-05,       !- Vertex 4 Ycoordinate
    13.95;                    !- Vertex 4 Zcoordinate

FENESTRATIONSURFACE:DETAILED,
    Block Poly_87_Residential_3 Storey 4 Wall 0006 window,    !- Name
    Window,                   !- Surface Type
    HSCWZ_Residential_2005_Win,    !- Construction Name
    Block Poly_87_Residential_3 Storey 4 Wall 0006,    !- Building Surface Name
    ,                         !- Outside Boundary Condition Object
    autocalculate,            !- View Factor to Ground
    ,                         !- Frame and Divider Name
    1,                        !- Multiplier
    autocalculate,            !- Number of Vertices
    47.02004431362328,        !- Vertex 1 Xcoordinate
    0.002327177,              !- Vertex 1 Ycoordinate
    13.95,                    !- Vertex 1 Zcoordinate
    47.02004431362328,        !- Vertex 2 Xcoordinate
    0.002327177,              !- Vertex 2 Ycoordinate
    13.05,                    !- Vertex 2 Zcoordinate
    47.177125168153374,       !- Vertex 3 Xcoordinate
    4.652026582837338,        !- Vertex 3 Ycoordinate
    13.05,                    !- Vertex 3 Zcoordinate
    47.177125168153374,       !- Vertex 4 Xcoordinate
    4.652026582837338,        !- Vertex 4 Ycoordinate
    13.95;                    !- Vertex 4 Zcoordinate

FENESTRATIONSURFACE:DETAILED,
    Block Poly_87_Residential_3 Storey 4 Wall 0007 window,    !- Name
    Window,                   !- Surface Type
    HSCWZ_Residential_2005_Win,    !- Construction Name
    Block Poly_87_Residential_3 Storey 4 Wall 0007,    !- Building Surface Name
    ,                         !- Outside Boundary Condition Object
    autocalculate,            !- View Factor to Ground
    ,                         !- Frame and Divider Name
    1,                        !- Multiplier
    autocalculate,            !- Number of Vertices
    47.18172116732556,        !- Vertex 1 Xcoordinate
    4.654238052508561,        !- Vertex 1 Ycoordinate
    13.95,                    !- Vertex 1 Zcoordinate
    47.18172116732556,        !- Vertex 2 Xcoordinate
    4.654238052508561,        !- Vertex 2 Ycoordinate
    13.05,                    !- Vertex 2 Zcoordinate
    56.2074466588315,         !- Vertex 3 Xcoordinate
    4.42305504965526,         !- Vertex 3 Ycoordinate
    13.05,                    !- Vertex 3 Zcoordinate
    56.2074466588315,         !- Vertex 4 Xcoordinate
    4.42305504965526,         !- Vertex 4 Ycoordinate
    13.95;                    !- Vertex 4 Zcoordinate

FENESTRATIONSURFACE:DETAILED,
    Block Poly_87_Residential_3 Storey 4 Wall 0008 window,    !- Name
    Window,                   !- Surface Type
    HSCWZ_Residential_2005_Win,    !- Construction Name
    Block Poly_87_Residential_3 Storey 4 Wall 0008,    !- Building Surface Name
    ,                         !- Outside Boundary Condition Object
    autocalculate,            !- View Factor to Ground
    ,                         !- Frame and Divider Name
    1,                        !- Multiplier
    autocalculate,            !- Number of Vertices
    56.211977856201294,       !- Vertex 1 Xcoordinate
    4.427540175773902,        !- Vertex 1 Ycoordinate
    13.95,                    !- Vertex 1 Zcoordinate
    56.211977856201294,       !- Vertex 2 Xcoordinate
    4.427540175773902,        !- Vertex 2 Ycoordinate
    13.05,                    !- Vertex 2 Zcoordinate
    56.23958470955008,        !- Vertex 3 Xcoordinate
    13.620005163672612,       !- Vertex 3 Ycoordinate
    13.05,                    !- Vertex 3 Zcoordinate
    56.23958470955008,        !- Vertex 4 Xcoordinate
    13.620005163672612,       !- Vertex 4 Ycoordinate
    13.95;                    !- Vertex 4 Zcoordinate

FENESTRATIONSURFACE:DETAILED,
    Block Poly_87_Residential_3 Storey 4 Wall 0009 window,    !- Name
    Window,                   !- Surface Type
    HSCWZ_Residential_2005_Win,    !- Construction Name
    Block Poly_87_Residential_3 Storey 4 Wall 0009,    !- Building Surface Name
    ,                         !- Outside Boundary Condition Object
    autocalculate,            !- View Factor to Ground
    ,                         !- Frame and Divider Name
    1,                        !- Multiplier
    autocalculate,            !- Number of Vertices
    56.211540128609165,       !- Vertex 1 Xcoordinate
    13.625091299078194,       !- Vertex 1 Ycoordinate
    13.95,                    !- Vertex 1 Zcoordinate
    56.211540128609165,       !- Vertex 2 Xcoordinate
    13.625091299078194,       !- Vertex 2 Ycoordinate
    13.05,                    !- Vertex 2 Zcoordinate
    0.1508606,                !- Vertex 3 Xcoordinate
    14.59472485153121,        !- Vertex 3 Ycoordinate
    13.05,                    !- Vertex 3 Zcoordinate
    0.1508606,                !- Vertex 4 Xcoordinate
    14.59472485153121,        !- Vertex 4 Ycoordinate
    13.95;                    !- Vertex 4 Zcoordinate

FENESTRATIONSURFACE:DETAILED,
    Block Poly_87_Residential_3 Storey 4 Wall 0010 window,    !- Name
    Window,                   !- Surface Type
    HSCWZ_Residential_2005_Win,    !- Construction Name
    Block Poly_87_Residential_3 Storey 4 Wall 0010,    !- Building Surface Name
    ,                         !- Outside Boundary Condition Object
    autocalculate,            !- View Factor to Ground
    ,                         !- Frame and Divider Name
    1,                        !- Multiplier
    autocalculate,            !- Number of Vertices
    0.1227408,                !- Vertex 1 Xcoordinate
    14.590609954259591,       !- Vertex 1 Ycoordinate
    13.95,                    !- Vertex 1 Zcoordinate
    0.1227408,                !- Vertex 2 Xcoordinate
    14.590609954259591,       !- Vertex 2 Ycoordinate
    13.05,                    !- Vertex 2 Zcoordinate
    6.140108e-05,             !- Vertex 3 Xcoordinate
    5.39941165311332,         !- Vertex 3 Ycoordinate
    13.05,                    !- Vertex 3 Zcoordinate
    6.140108e-05,             !- Vertex 4 Xcoordinate
    5.39941165311332,         !- Vertex 4 Ycoordinate
    13.95;                    !- Vertex 4 Zcoordinate

FENESTRATIONSURFACE:DETAILED,
    Block Poly_87_Residential_3 Storey 4 Wall 0011 window,    !- Name
    Window,                   !- Surface Type
    HSCWZ_Residential_2005_Win,    !- Construction Name
    Block Poly_87_Residential_3 Storey 4 Wall 0011,    !- Building Surface Name
    ,                         !- Outside Boundary Condition Object
    autocalculate,            !- View Factor to Ground
    ,                         !- Frame and Divider Name
    1,                        !- Multiplier
    autocalculate,            !- Number of Vertices
    0.004185206,              !- Vertex 1 Xcoordinate
    5.3947555935424765,       !- Vertex 1 Ycoordinate
    13.95,                    !- Vertex 1 Zcoordinate
    0.004185206,              !- Vertex 2 Xcoordinate
    5.3947555935424765,       !- Vertex 2 Ycoordinate
    13.05,                    !- Vertex 2 Zcoordinate
    8.366226615788385,        !- Vertex 3 Xcoordinate
    5.283146872143727,        !- Vertex 3 Ycoordinate
    13.05,                    !- Vertex 3 Zcoordinate
    8.366226615788385,        !- Vertex 4 Xcoordinate
    5.283146872143727,        !- Vertex 4 Ycoordinate
    13.95;                    !- Vertex 4 Zcoordinate

FENESTRATIONSURFACE:DETAILED,
    Block Poly_87_Residential_3 Storey 4 Wall 0012 window,    !- Name
    Window,                   !- Surface Type
    HSCWZ_Residential_2005_Win,    !- Construction Name
    Block Poly_87_Residential_3 Storey 4 Wall 0012,    !- Building Surface Name
    ,                         !- Outside Boundary Condition Object
    autocalculate,            !- View Factor to Ground
    ,                         !- Frame and Divider Name
    1,                        !- Multiplier
    autocalculate,            !- Number of Vertices
    8.370380753192352,        !- Vertex 1 Xcoordinate
    5.2807632002669855,       !- Vertex 1 Ycoordinate
    13.95,                    !- Vertex 1 Zcoordinate
    8.370380753192352,        !- Vertex 2 Xcoordinate
    5.2807632002669855,       !- Vertex 2 Ycoordinate
    13.05,                    !- Vertex 2 Zcoordinate
    8.308305876439205,        !- Vertex 3 Xcoordinate
    0.6297955119360705,       !- Vertex 3 Ycoordinate
    13.05,                    !- Vertex 3 Zcoordinate
    8.308305876439205,        !- Vertex 4 Xcoordinate
    0.6297955119360705,       !- Vertex 4 Ycoordinate
    13.95;                    !- Vertex 4 Zcoordinate

FENESTRATIONSURFACE:DETAILED,
    Block Poly_87_Residential_3 Storey 5 Wall 0001 window,    !- Name
    Window,                   !- Surface Type
    HSCWZ_Residential_2005_Win,    !- Construction Name
    Block Poly_87_Residential_3 Storey 5 Wall 0001,    !- Building Surface Name
    ,                         !- Outside Boundary Condition Object
    autocalculate,            !- View Factor to Ground
    ,                         !- Frame and Divider Name
    1,                        !- Multiplier
    autocalculate,            !- Number of Vertices
    8.313601435898395,        !- Vertex 1 Xcoordinate
    0.6273966103503481,       !- Vertex 1 Ycoordinate
    16.95,                    !- Vertex 1 Zcoordinate
    8.313601435898395,        !- Vertex 2 Xcoordinate
    0.6273966103503481,       !- Vertex 2 Ycoordinate
    16.05,                    !- Vertex 2 Zcoordinate
    18.956204112115724,       !- Vertex 3 Xcoordinate
    0.4853589,                !- Vertex 3 Ycoordinate
    16.05,                    !- Vertex 3 Zcoordinate
    18.956204112115724,       !- Vertex 4 Xcoordinate
    0.4853589,                !- Vertex 4 Ycoordinate
    16.95;                    !- Vertex 4 Zcoordinate

FENESTRATIONSURFACE:DETAILED,
    Block Poly_87_Residential_3 Storey 5 Wall 0002 window,    !- Name
    Window,                   !- Surface Type
    HSCWZ_Residential_2005_Win,    !- Construction Name
    Block Poly_87_Residential_3 Storey 5 Wall 0002,    !- Building Surface Name
    ,                         !- Outside Boundary Condition Object
    autocalculate,            !- View Factor to Ground
    ,                         !- Frame and Divider Name
    1,                        !- Multiplier
    autocalculate,            !- Number of Vertices
    18.96160862570512,        !- Vertex 1 Xcoordinate
    0.4875596,                !- Vertex 1 Ycoordinate
    16.95,                    !- Vertex 1 Zcoordinate
    18.96160862570512,        !- Vertex 2 Xcoordinate
    0.4875596,                !- Vertex 2 Ycoordinate
    16.05,                    !- Vertex 2 Zcoordinate
    19.117224101104078,       !- Vertex 3 Xcoordinate
    5.026521704155952,        !- Vertex 3 Ycoordinate
    16.05,                    !- Vertex 3 Zcoordinate
    19.117224101104078,       !- Vertex 4 Xcoordinate
    5.026521704155952,        !- Vertex 4 Ycoordinate
    16.95;                    !- Vertex 4 Zcoordinate

FENESTRATIONSURFACE:DETAILED,
    Block Poly_87_Residential_3 Storey 5 Wall 0003 window,    !- Name
    Window,                   !- Surface Type
    HSCWZ_Residential_2005_Win,    !- Construction Name
    Block Poly_87_Residential_3 Storey 5 Wall 0003,    !- Building Surface Name
    ,                         !- Outside Boundary Condition Object
    autocalculate,            !- View Factor to Ground
    ,                         !- Frame and Divider Name
    1,                        !- Multiplier
    autocalculate,            !- Number of Vertices
    19.12595775314578,        !- Vertex 1 Xcoordinate
    5.028677947391057,        !- Vertex 1 Ycoordinate
    16.95,                    !- Vertex 1 Zcoordinate
    19.12595775314578,        !- Vertex 2 Xcoordinate
    5.028677947391057,        !- Vertex 2 Ycoordinate
    16.05,                    !- Vertex 2 Zcoordinate
    36.42017905706569,        !- Vertex 3 Xcoordinate
    4.797889820262558,        !- Vertex 3 Ycoordinate
    16.05,                    !- Vertex 3 Zcoordinate
    36.42017905706569,        !- Vertex 4 Xcoordinate
    4.797889820262558,        !- Vertex 4 Ycoordinate
    16.95;                    !- Vertex 4 Zcoordinate

FENESTRATIONSURFACE:DETAILED,
    Block Poly_87_Residential_3 Storey 5 Wall 0004 window,    !- Name
    Window,                   !- Surface Type
    HSCWZ_Residential_2005_Win,    !- Construction Name
    Block Poly_87_Residential_3 Storey 5 Wall 0004,    !- Building Surface Name
    ,                         !- Outside Boundary Condition Object
    autocalculate,            !- View Factor to Ground
    ,                         !- Frame and Divider Name
    1,                        !- Multiplier
    autocalculate,            !- Number of Vertices
    36.428803761221644,       !- Vertex 1 Xcoordinate
    4.795446499175858,        !- Vertex 1 Ycoordinate
    16.95,                    !- Vertex 1 Zcoordinate
    36.428803761221644,       !- Vertex 2 Xcoordinate
    4.795446499175858,        !- Vertex 2 Ycoordinate
    16.05,                    !- Vertex 2 Zcoordinate
    36.366741360898885,       !- Vertex 3 Xcoordinate
    0.1444791,                !- Vertex 3 Ycoordinate
    16.05,                    !- Vertex 3 Zcoordinate
    36.366741360898885,       !- Vertex 4 Xcoordinate
    0.1444791,                !- Vertex 4 Ycoordinate
    16.95;                    !- Vertex 4 Zcoordinate

FENESTRATIONSURFACE:DETAILED,
    Block Poly_87_Residential_3 Storey 5 Wall 0005 window,    !- Name
    Window,                   !- Surface Type
    HSCWZ_Residential_2005_Win,    !- Construction Name
    Block Poly_87_Residential_3 Storey 5 Wall 0005,    !- Building Surface Name
    ,                         !- Outside Boundary Condition Object
    autocalculate,            !- View Factor to Ground
    ,                         !- Frame and Divider Name
    1,                        !- Multiplier
    autocalculate,            !- Number of Vertices
    36.37203692633443,        !- Vertex 1 Xcoordinate
    0.1420802,                !- Vertex 1 Ycoordinate
    16.95,                    !- Vertex 1 Zcoordinate
    36.37203692633443,        !- Vertex 2 Xcoordinate
    0.1420802,                !- Vertex 2 Ycoordinate
    16.05,                    !- Vertex 2 Zcoordinate
    47.014639066879,          !- Vertex 3 Xcoordinate
    7.107564178295e-05,       !- Vertex 3 Ycoordinate
    16.05,                    !- Vertex 3 Zcoordinate
    47.014639066879,          !- Vertex 4 Xcoordinate
    7.107564178295e-05,       !- Vertex 4 Ycoordinate
    16.95;                    !- Vertex 4 Zcoordinate

FENESTRATIONSURFACE:DETAILED,
    Block Poly_87_Residential_3 Storey 5 Wall 0006 window,    !- Name
    Window,                   !- Surface Type
    HSCWZ_Residential_2005_Win,    !- Construction Name
    Block Poly_87_Residential_3 Storey 5 Wall 0006,    !- Building Surface Name
    ,                         !- Outside Boundary Condition Object
    autocalculate,            !- View Factor to Ground
    ,                         !- Frame and Divider Name
    1,                        !- Multiplier
    autocalculate,            !- Number of Vertices
    47.02004431362328,        !- Vertex 1 Xcoordinate
    0.002327177,              !- Vertex 1 Ycoordinate
    16.95,                    !- Vertex 1 Zcoordinate
    47.02004431362328,        !- Vertex 2 Xcoordinate
    0.002327177,              !- Vertex 2 Ycoordinate
    16.05,                    !- Vertex 2 Zcoordinate
    47.177125168153374,       !- Vertex 3 Xcoordinate
    4.652026582837338,        !- Vertex 3 Ycoordinate
    16.05,                    !- Vertex 3 Zcoordinate
    47.177125168153374,       !- Vertex 4 Xcoordinate
    4.652026582837338,        !- Vertex 4 Ycoordinate
    16.95;                    !- Vertex 4 Zcoordinate

FENESTRATIONSURFACE:DETAILED,
    Block Poly_87_Residential_3 Storey 5 Wall 0007 window,    !- Name
    Window,                   !- Surface Type
    HSCWZ_Residential_2005_Win,    !- Construction Name
    Block Poly_87_Residential_3 Storey 5 Wall 0007,    !- Building Surface Name
    ,                         !- Outside Boundary Condition Object
    autocalculate,            !- View Factor to Ground
    ,                         !- Frame and Divider Name
    1,                        !- Multiplier
    autocalculate,            !- Number of Vertices
    47.18172116732556,        !- Vertex 1 Xcoordinate
    4.654238052508561,        !- Vertex 1 Ycoordinate
    16.95,                    !- Vertex 1 Zcoordinate
    47.18172116732556,        !- Vertex 2 Xcoordinate
    4.654238052508561,        !- Vertex 2 Ycoordinate
    16.05,                    !- Vertex 2 Zcoordinate
    56.2074466588315,         !- Vertex 3 Xcoordinate
    4.42305504965526,         !- Vertex 3 Ycoordinate
    16.05,                    !- Vertex 3 Zcoordinate
    56.2074466588315,         !- Vertex 4 Xcoordinate
    4.42305504965526,         !- Vertex 4 Ycoordinate
    16.95;                    !- Vertex 4 Zcoordinate

FENESTRATIONSURFACE:DETAILED,
    Block Poly_87_Residential_3 Storey 5 Wall 0008 window,    !- Name
    Window,                   !- Surface Type
    HSCWZ_Residential_2005_Win,    !- Construction Name
    Block Poly_87_Residential_3 Storey 5 Wall 0008,    !- Building Surface Name
    ,                         !- Outside Boundary Condition Object
    autocalculate,            !- View Factor to Ground
    ,                         !- Frame and Divider Name
    1,                        !- Multiplier
    autocalculate,            !- Number of Vertices
    56.211977856201294,       !- Vertex 1 Xcoordinate
    4.427540175773902,        !- Vertex 1 Ycoordinate
    16.95,                    !- Vertex 1 Zcoordinate
    56.211977856201294,       !- Vertex 2 Xcoordinate
    4.427540175773902,        !- Vertex 2 Ycoordinate
    16.05,                    !- Vertex 2 Zcoordinate
    56.23958470955008,        !- Vertex 3 Xcoordinate
    13.620005163672612,       !- Vertex 3 Ycoordinate
    16.05,                    !- Vertex 3 Zcoordinate
    56.23958470955008,        !- Vertex 4 Xcoordinate
    13.620005163672612,       !- Vertex 4 Ycoordinate
    16.95;                    !- Vertex 4 Zcoordinate

FENESTRATIONSURFACE:DETAILED,
    Block Poly_87_Residential_3 Storey 5 Wall 0009 window,    !- Name
    Window,                   !- Surface Type
    HSCWZ_Residential_2005_Win,    !- Construction Name
    Block Poly_87_Residential_3 Storey 5 Wall 0009,    !- Building Surface Name
    ,                         !- Outside Boundary Condition Object
    autocalculate,            !- View Factor to Ground
    ,                         !- Frame and Divider Name
    1,                        !- Multiplier
    autocalculate,            !- Number of Vertices
    56.211540128609165,       !- Vertex 1 Xcoordinate
    13.625091299078194,       !- Vertex 1 Ycoordinate
    16.95,                    !- Vertex 1 Zcoordinate
    56.211540128609165,       !- Vertex 2 Xcoordinate
    13.625091299078194,       !- Vertex 2 Ycoordinate
    16.05,                    !- Vertex 2 Zcoordinate
    0.1508606,                !- Vertex 3 Xcoordinate
    14.59472485153121,        !- Vertex 3 Ycoordinate
    16.05,                    !- Vertex 3 Zcoordinate
    0.1508606,                !- Vertex 4 Xcoordinate
    14.59472485153121,        !- Vertex 4 Ycoordinate
    16.95;                    !- Vertex 4 Zcoordinate

FENESTRATIONSURFACE:DETAILED,
    Block Poly_87_Residential_3 Storey 5 Wall 0010 window,    !- Name
    Window,                   !- Surface Type
    HSCWZ_Residential_2005_Win,    !- Construction Name
    Block Poly_87_Residential_3 Storey 5 Wall 0010,    !- Building Surface Name
    ,                         !- Outside Boundary Condition Object
    autocalculate,            !- View Factor to Ground
    ,                         !- Frame and Divider Name
    1,                        !- Multiplier
    autocalculate,            !- Number of Vertices
    0.1227408,                !- Vertex 1 Xcoordinate
    14.590609954259591,       !- Vertex 1 Ycoordinate
    16.95,                    !- Vertex 1 Zcoordinate
    0.1227408,                !- Vertex 2 Xcoordinate
    14.590609954259591,       !- Vertex 2 Ycoordinate
    16.05,                    !- Vertex 2 Zcoordinate
    6.140108e-05,             !- Vertex 3 Xcoordinate
    5.39941165311332,         !- Vertex 3 Ycoordinate
    16.05,                    !- Vertex 3 Zcoordinate
    6.140108e-05,             !- Vertex 4 Xcoordinate
    5.39941165311332,         !- Vertex 4 Ycoordinate
    16.95;                    !- Vertex 4 Zcoordinate

FENESTRATIONSURFACE:DETAILED,
    Block Poly_87_Residential_3 Storey 5 Wall 0011 window,    !- Name
    Window,                   !- Surface Type
    HSCWZ_Residential_2005_Win,    !- Construction Name
    Block Poly_87_Residential_3 Storey 5 Wall 0011,    !- Building Surface Name
    ,                         !- Outside Boundary Condition Object
    autocalculate,            !- View Factor to Ground
    ,                         !- Frame and Divider Name
    1,                        !- Multiplier
    autocalculate,            !- Number of Vertices
    0.004185206,              !- Vertex 1 Xcoordinate
    5.3947555935424765,       !- Vertex 1 Ycoordinate
    16.95,                    !- Vertex 1 Zcoordinate
    0.004185206,              !- Vertex 2 Xcoordinate
    5.3947555935424765,       !- Vertex 2 Ycoordinate
    16.05,                    !- Vertex 2 Zcoordinate
    8.366226615788385,        !- Vertex 3 Xcoordinate
    5.283146872143727,        !- Vertex 3 Ycoordinate
    16.05,                    !- Vertex 3 Zcoordinate
    8.366226615788385,        !- Vertex 4 Xcoordinate
    5.283146872143727,        !- Vertex 4 Ycoordinate
    16.95;                    !- Vertex 4 Zcoordinate

FENESTRATIONSURFACE:DETAILED,
    Block Poly_87_Residential_3 Storey 5 Wall 0012 window,    !- Name
    Window,                   !- Surface Type
    HSCWZ_Residential_2005_Win,    !- Construction Name
    Block Poly_87_Residential_3 Storey 5 Wall 0012,    !- Building Surface Name
    ,                         !- Outside Boundary Condition Object
    autocalculate,            !- View Factor to Ground
    ,                         !- Frame and Divider Name
    1,                        !- Multiplier
    autocalculate,            !- Number of Vertices
    8.370380753192352,        !- Vertex 1 Xcoordinate
    5.2807632002669855,       !- Vertex 1 Ycoordinate
    16.95,                    !- Vertex 1 Zcoordinate
    8.370380753192352,        !- Vertex 2 Xcoordinate
    5.2807632002669855,       !- Vertex 2 Ycoordinate
    16.05,                    !- Vertex 2 Zcoordinate
    8.308305876439205,        !- Vertex 3 Xcoordinate
    0.6297955119360705,       !- Vertex 3 Ycoordinate
    16.05,                    !- Vertex 3 Zcoordinate
    8.308305876439205,        !- Vertex 4 Xcoordinate
    0.6297955119360705,       !- Vertex 4 Ycoordinate
    16.95;                    !- Vertex 4 Zcoordinate

FENESTRATIONSURFACE:DETAILED,
    Block Poly_87_Residential_3 Storey 6 Wall 0001 window,    !- Name
    Window,                   !- Surface Type
    HSCWZ_Residential_2005_Win,    !- Construction Name
    Block Poly_87_Residential_3 Storey 6 Wall 0001,    !- Building Surface Name
    ,                         !- Outside Boundary Condition Object
    autocalculate,            !- View Factor to Ground
    ,                         !- Frame and Divider Name
    1,                        !- Multiplier
    autocalculate,            !- Number of Vertices
    8.313601435898395,        !- Vertex 1 Xcoordinate
    0.6273966103503481,       !- Vertex 1 Ycoordinate
    19.95,                    !- Vertex 1 Zcoordinate
    8.313601435898395,        !- Vertex 2 Xcoordinate
    0.6273966103503481,       !- Vertex 2 Ycoordinate
    19.05,                    !- Vertex 2 Zcoordinate
    18.956204112115724,       !- Vertex 3 Xcoordinate
    0.4853589,                !- Vertex 3 Ycoordinate
    19.05,                    !- Vertex 3 Zcoordinate
    18.956204112115724,       !- Vertex 4 Xcoordinate
    0.4853589,                !- Vertex 4 Ycoordinate
    19.95;                    !- Vertex 4 Zcoordinate

FENESTRATIONSURFACE:DETAILED,
    Block Poly_87_Residential_3 Storey 6 Wall 0002 window,    !- Name
    Window,                   !- Surface Type
    HSCWZ_Residential_2005_Win,    !- Construction Name
    Block Poly_87_Residential_3 Storey 6 Wall 0002,    !- Building Surface Name
    ,                         !- Outside Boundary Condition Object
    autocalculate,            !- View Factor to Ground
    ,                         !- Frame and Divider Name
    1,                        !- Multiplier
    autocalculate,            !- Number of Vertices
    18.96160862570512,        !- Vertex 1 Xcoordinate
    0.4875596,                !- Vertex 1 Ycoordinate
    19.95,                    !- Vertex 1 Zcoordinate
    18.96160862570512,        !- Vertex 2 Xcoordinate
    0.4875596,                !- Vertex 2 Ycoordinate
    19.05,                    !- Vertex 2 Zcoordinate
    19.117224101104078,       !- Vertex 3 Xcoordinate
    5.026521704155952,        !- Vertex 3 Ycoordinate
    19.05,                    !- Vertex 3 Zcoordinate
    19.117224101104078,       !- Vertex 4 Xcoordinate
    5.026521704155952,        !- Vertex 4 Ycoordinate
    19.95;                    !- Vertex 4 Zcoordinate

FENESTRATIONSURFACE:DETAILED,
    Block Poly_87_Residential_3 Storey 6 Wall 0003 window,    !- Name
    Window,                   !- Surface Type
    HSCWZ_Residential_2005_Win,    !- Construction Name
    Block Poly_87_Residential_3 Storey 6 Wall 0003,    !- Building Surface Name
    ,                         !- Outside Boundary Condition Object
    autocalculate,            !- View Factor to Ground
    ,                         !- Frame and Divider Name
    1,                        !- Multiplier
    autocalculate,            !- Number of Vertices
    19.12595775314578,        !- Vertex 1 Xcoordinate
    5.028677947391057,        !- Vertex 1 Ycoordinate
    19.95,                    !- Vertex 1 Zcoordinate
    19.12595775314578,        !- Vertex 2 Xcoordinate
    5.028677947391057,        !- Vertex 2 Ycoordinate
    19.05,                    !- Vertex 2 Zcoordinate
    36.42017905706569,        !- Vertex 3 Xcoordinate
    4.797889820262558,        !- Vertex 3 Ycoordinate
    19.05,                    !- Vertex 3 Zcoordinate
    36.42017905706569,        !- Vertex 4 Xcoordinate
    4.797889820262558,        !- Vertex 4 Ycoordinate
    19.95;                    !- Vertex 4 Zcoordinate

FENESTRATIONSURFACE:DETAILED,
    Block Poly_87_Residential_3 Storey 6 Wall 0004 window,    !- Name
    Window,                   !- Surface Type
    HSCWZ_Residential_2005_Win,    !- Construction Name
    Block Poly_87_Residential_3 Storey 6 Wall 0004,    !- Building Surface Name
    ,                         !- Outside Boundary Condition Object
    autocalculate,            !- View Factor to Ground
    ,                         !- Frame and Divider Name
    1,                        !- Multiplier
    autocalculate,            !- Number of Vertices
    36.428803761221644,       !- Vertex 1 Xcoordinate
    4.795446499175858,        !- Vertex 1 Ycoordinate
    19.95,                    !- Vertex 1 Zcoordinate
    36.428803761221644,       !- Vertex 2 Xcoordinate
    4.795446499175858,        !- Vertex 2 Ycoordinate
    19.05,                    !- Vertex 2 Zcoordinate
    36.366741360898885,       !- Vertex 3 Xcoordinate
    0.1444791,                !- Vertex 3 Ycoordinate
    19.05,                    !- Vertex 3 Zcoordinate
    36.366741360898885,       !- Vertex 4 Xcoordinate
    0.1444791,                !- Vertex 4 Ycoordinate
    19.95;                    !- Vertex 4 Zcoordinate

FENESTRATIONSURFACE:DETAILED,
    Block Poly_87_Residential_3 Storey 6 Wall 0005 window,    !- Name
    Window,                   !- Surface Type
    HSCWZ_Residential_2005_Win,    !- Construction Name
    Block Poly_87_Residential_3 Storey 6 Wall 0005,    !- Building Surface Name
    ,                         !- Outside Boundary Condition Object
    autocalculate,            !- View Factor to Ground
    ,                         !- Frame and Divider Name
    1,                        !- Multiplier
    autocalculate,            !- Number of Vertices
    36.37203692633443,        !- Vertex 1 Xcoordinate
    0.1420802,                !- Vertex 1 Ycoordinate
    19.95,                    !- Vertex 1 Zcoordinate
    36.37203692633443,        !- Vertex 2 Xcoordinate
    0.1420802,                !- Vertex 2 Ycoordinate
    19.05,                    !- Vertex 2 Zcoordinate
    47.014639066879,          !- Vertex 3 Xcoordinate
    7.107564178295e-05,       !- Vertex 3 Ycoordinate
    19.05,                    !- Vertex 3 Zcoordinate
    47.014639066879,          !- Vertex 4 Xcoordinate
    7.107564178295e-05,       !- Vertex 4 Ycoordinate
    19.95;                    !- Vertex 4 Zcoordinate

FENESTRATIONSURFACE:DETAILED,
    Block Poly_87_Residential_3 Storey 6 Wall 0006 window,    !- Name
    Window,                   !- Surface Type
    HSCWZ_Residential_2005_Win,    !- Construction Name
    Block Poly_87_Residential_3 Storey 6 Wall 0006,    !- Building Surface Name
    ,                         !- Outside Boundary Condition Object
    autocalculate,            !- View Factor to Ground
    ,                         !- Frame and Divider Name
    1,                        !- Multiplier
    autocalculate,            !- Number of Vertices
    47.02004431362328,        !- Vertex 1 Xcoordinate
    0.002327177,              !- Vertex 1 Ycoordinate
    19.95,                    !- Vertex 1 Zcoordinate
    47.02004431362328,        !- Vertex 2 Xcoordinate
    0.002327177,              !- Vertex 2 Ycoordinate
    19.05,                    !- Vertex 2 Zcoordinate
    47.177125168153374,       !- Vertex 3 Xcoordinate
    4.652026582837338,        !- Vertex 3 Ycoordinate
    19.05,                    !- Vertex 3 Zcoordinate
    47.177125168153374,       !- Vertex 4 Xcoordinate
    4.652026582837338,        !- Vertex 4 Ycoordinate
    19.95;                    !- Vertex 4 Zcoordinate

FENESTRATIONSURFACE:DETAILED,
    Block Poly_87_Residential_3 Storey 6 Wall 0007 window,    !- Name
    Window,                   !- Surface Type
    HSCWZ_Residential_2005_Win,    !- Construction Name
    Block Poly_87_Residential_3 Storey 6 Wall 0007,    !- Building Surface Name
    ,                         !- Outside Boundary Condition Object
    autocalculate,            !- View Factor to Ground
    ,                         !- Frame and Divider Name
    1,                        !- Multiplier
    autocalculate,            !- Number of Vertices
    47.18172116732556,        !- Vertex 1 Xcoordinate
    4.654238052508561,        !- Vertex 1 Ycoordinate
    19.95,                    !- Vertex 1 Zcoordinate
    47.18172116732556,        !- Vertex 2 Xcoordinate
    4.654238052508561,        !- Vertex 2 Ycoordinate
    19.05,                    !- Vertex 2 Zcoordinate
    56.2074466588315,         !- Vertex 3 Xcoordinate
    4.42305504965526,         !- Vertex 3 Ycoordinate
    19.05,                    !- Vertex 3 Zcoordinate
    56.2074466588315,         !- Vertex 4 Xcoordinate
    4.42305504965526,         !- Vertex 4 Ycoordinate
    19.95;                    !- Vertex 4 Zcoordinate

FENESTRATIONSURFACE:DETAILED,
    Block Poly_87_Residential_3 Storey 6 Wall 0008 window,    !- Name
    Window,                   !- Surface Type
    HSCWZ_Residential_2005_Win,    !- Construction Name
    Block Poly_87_Residential_3 Storey 6 Wall 0008,    !- Building Surface Name
    ,                         !- Outside Boundary Condition Object
    autocalculate,            !- View Factor to Ground
    ,                         !- Frame and Divider Name
    1,                        !- Multiplier
    autocalculate,            !- Number of Vertices
    56.211977856201294,       !- Vertex 1 Xcoordinate
    4.427540175773902,        !- Vertex 1 Ycoordinate
    19.95,                    !- Vertex 1 Zcoordinate
    56.211977856201294,       !- Vertex 2 Xcoordinate
    4.427540175773902,        !- Vertex 2 Ycoordinate
    19.05,                    !- Vertex 2 Zcoordinate
    56.23958470955008,        !- Vertex 3 Xcoordinate
    13.620005163672612,       !- Vertex 3 Ycoordinate
    19.05,                    !- Vertex 3 Zcoordinate
    56.23958470955008,        !- Vertex 4 Xcoordinate
    13.620005163672612,       !- Vertex 4 Ycoordinate
    19.95;                    !- Vertex 4 Zcoordinate

FENESTRATIONSURFACE:DETAILED,
    Block Poly_87_Residential_3 Storey 6 Wall 0009 window,    !- Name
    Window,                   !- Surface Type
    HSCWZ_Residential_2005_Win,    !- Construction Name
    Block Poly_87_Residential_3 Storey 6 Wall 0009,    !- Building Surface Name
    ,                         !- Outside Boundary Condition Object
    autocalculate,            !- View Factor to Ground
    ,                         !- Frame and Divider Name
    1,                        !- Multiplier
    autocalculate,            !- Number of Vertices
    56.211540128609165,       !- Vertex 1 Xcoordinate
    13.625091299078194,       !- Vertex 1 Ycoordinate
    19.95,                    !- Vertex 1 Zcoordinate
    56.211540128609165,       !- Vertex 2 Xcoordinate
    13.625091299078194,       !- Vertex 2 Ycoordinate
    19.05,                    !- Vertex 2 Zcoordinate
    0.1508606,                !- Vertex 3 Xcoordinate
    14.59472485153121,        !- Vertex 3 Ycoordinate
    19.05,                    !- Vertex 3 Zcoordinate
    0.1508606,                !- Vertex 4 Xcoordinate
    14.59472485153121,        !- Vertex 4 Ycoordinate
    19.95;                    !- Vertex 4 Zcoordinate

FENESTRATIONSURFACE:DETAILED,
    Block Poly_87_Residential_3 Storey 6 Wall 0010 window,    !- Name
    Window,                   !- Surface Type
    HSCWZ_Residential_2005_Win,    !- Construction Name
    Block Poly_87_Residential_3 Storey 6 Wall 0010,    !- Building Surface Name
    ,                         !- Outside Boundary Condition Object
    autocalculate,            !- View Factor to Ground
    ,                         !- Frame and Divider Name
    1,                        !- Multiplier
    autocalculate,            !- Number of Vertices
    0.1227408,                !- Vertex 1 Xcoordinate
    14.590609954259591,       !- Vertex 1 Ycoordinate
    19.95,                    !- Vertex 1 Zcoordinate
    0.1227408,                !- Vertex 2 Xcoordinate
    14.590609954259591,       !- Vertex 2 Ycoordinate
    19.05,                    !- Vertex 2 Zcoordinate
    6.140108e-05,             !- Vertex 3 Xcoordinate
    5.39941165311332,         !- Vertex 3 Ycoordinate
    19.05,                    !- Vertex 3 Zcoordinate
    6.140108e-05,             !- Vertex 4 Xcoordinate
    5.39941165311332,         !- Vertex 4 Ycoordinate
    19.95;                    !- Vertex 4 Zcoordinate

FENESTRATIONSURFACE:DETAILED,
    Block Poly_87_Residential_3 Storey 6 Wall 0011 window,    !- Name
    Window,                   !- Surface Type
    HSCWZ_Residential_2005_Win,    !- Construction Name
    Block Poly_87_Residential_3 Storey 6 Wall 0011,    !- Building Surface Name
    ,                         !- Outside Boundary Condition Object
    autocalculate,            !- View Factor to Ground
    ,                         !- Frame and Divider Name
    1,                        !- Multiplier
    autocalculate,            !- Number of Vertices
    0.004185206,              !- Vertex 1 Xcoordinate
    5.3947555935424765,       !- Vertex 1 Ycoordinate
    19.95,                    !- Vertex 1 Zcoordinate
    0.004185206,              !- Vertex 2 Xcoordinate
    5.3947555935424765,       !- Vertex 2 Ycoordinate
    19.05,                    !- Vertex 2 Zcoordinate
    8.366226615788385,        !- Vertex 3 Xcoordinate
    5.283146872143727,        !- Vertex 3 Ycoordinate
    19.05,                    !- Vertex 3 Zcoordinate
    8.366226615788385,        !- Vertex 4 Xcoordinate
    5.283146872143727,        !- Vertex 4 Ycoordinate
    19.95;                    !- Vertex 4 Zcoordinate

FENESTRATIONSURFACE:DETAILED,
    Block Poly_87_Residential_3 Storey 6 Wall 0012 window,    !- Name
    Window,                   !- Surface Type
    HSCWZ_Residential_2005_Win,    !- Construction Name
    Block Poly_87_Residential_3 Storey 6 Wall 0012,    !- Building Surface Name
    ,                         !- Outside Boundary Condition Object
    autocalculate,            !- View Factor to Ground
    ,                         !- Frame and Divider Name
    1,                        !- Multiplier
    autocalculate,            !- Number of Vertices
    8.370380753192352,        !- Vertex 1 Xcoordinate
    5.2807632002669855,       !- Vertex 1 Ycoordinate
    19.95,                    !- Vertex 1 Zcoordinate
    8.370380753192352,        !- Vertex 2 Xcoordinate
    5.2807632002669855,       !- Vertex 2 Ycoordinate
    19.05,                    !- Vertex 2 Zcoordinate
    8.308305876439205,        !- Vertex 3 Xcoordinate
    0.6297955119360705,       !- Vertex 3 Ycoordinate
    19.05,                    !- Vertex 3 Zcoordinate
    8.308305876439205,        !- Vertex 4 Xcoordinate
    0.6297955119360705,       !- Vertex 4 Ycoordinate
    19.95;                    !- Vertex 4 Zcoordinate

FENESTRATIONSURFACE:DETAILED,
    Block Poly_87_Residential_3 Storey 7 Wall 0001 window,    !- Name
    Window,                   !- Surface Type
    HSCWZ_Residential_2005_Win,    !- Construction Name
    Block Poly_87_Residential_3 Storey 7 Wall 0001,    !- Building Surface Name
    ,                         !- Outside Boundary Condition Object
    autocalculate,            !- View Factor to Ground
    ,                         !- Frame and Divider Name
    1,                        !- Multiplier
    autocalculate,            !- Number of Vertices
    8.313601435898395,        !- Vertex 1 Xcoordinate
    0.6273966103503481,       !- Vertex 1 Ycoordinate
    22.95,                    !- Vertex 1 Zcoordinate
    8.313601435898395,        !- Vertex 2 Xcoordinate
    0.6273966103503481,       !- Vertex 2 Ycoordinate
    22.05,                    !- Vertex 2 Zcoordinate
    18.956204112115724,       !- Vertex 3 Xcoordinate
    0.4853589,                !- Vertex 3 Ycoordinate
    22.05,                    !- Vertex 3 Zcoordinate
    18.956204112115724,       !- Vertex 4 Xcoordinate
    0.4853589,                !- Vertex 4 Ycoordinate
    22.95;                    !- Vertex 4 Zcoordinate

FENESTRATIONSURFACE:DETAILED,
    Block Poly_87_Residential_3 Storey 7 Wall 0002 window,    !- Name
    Window,                   !- Surface Type
    HSCWZ_Residential_2005_Win,    !- Construction Name
    Block Poly_87_Residential_3 Storey 7 Wall 0002,    !- Building Surface Name
    ,                         !- Outside Boundary Condition Object
    autocalculate,            !- View Factor to Ground
    ,                         !- Frame and Divider Name
    1,                        !- Multiplier
    autocalculate,            !- Number of Vertices
    18.96160862570512,        !- Vertex 1 Xcoordinate
    0.4875596,                !- Vertex 1 Ycoordinate
    22.95,                    !- Vertex 1 Zcoordinate
    18.96160862570512,        !- Vertex 2 Xcoordinate
    0.4875596,                !- Vertex 2 Ycoordinate
    22.05,                    !- Vertex 2 Zcoordinate
    19.117224101104078,       !- Vertex 3 Xcoordinate
    5.026521704155952,        !- Vertex 3 Ycoordinate
    22.05,                    !- Vertex 3 Zcoordinate
    19.117224101104078,       !- Vertex 4 Xcoordinate
    5.026521704155952,        !- Vertex 4 Ycoordinate
    22.95;                    !- Vertex 4 Zcoordinate

FENESTRATIONSURFACE:DETAILED,
    Block Poly_87_Residential_3 Storey 7 Wall 0003 window,    !- Name
    Window,                   !- Surface Type
    HSCWZ_Residential_2005_Win,    !- Construction Name
    Block Poly_87_Residential_3 Storey 7 Wall 0003,    !- Building Surface Name
    ,                         !- Outside Boundary Condition Object
    autocalculate,            !- View Factor to Ground
    ,                         !- Frame and Divider Name
    1,                        !- Multiplier
    autocalculate,            !- Number of Vertices
    19.12595775314578,        !- Vertex 1 Xcoordinate
    5.028677947391057,        !- Vertex 1 Ycoordinate
    22.95,                    !- Vertex 1 Zcoordinate
    19.12595775314578,        !- Vertex 2 Xcoordinate
    5.028677947391057,        !- Vertex 2 Ycoordinate
    22.05,                    !- Vertex 2 Zcoordinate
    36.42017905706569,        !- Vertex 3 Xcoordinate
    4.797889820262558,        !- Vertex 3 Ycoordinate
    22.05,                    !- Vertex 3 Zcoordinate
    36.42017905706569,        !- Vertex 4 Xcoordinate
    4.797889820262558,        !- Vertex 4 Ycoordinate
    22.95;                    !- Vertex 4 Zcoordinate

FENESTRATIONSURFACE:DETAILED,
    Block Poly_87_Residential_3 Storey 7 Wall 0004 window,    !- Name
    Window,                   !- Surface Type
    HSCWZ_Residential_2005_Win,    !- Construction Name
    Block Poly_87_Residential_3 Storey 7 Wall 0004,    !- Building Surface Name
    ,                         !- Outside Boundary Condition Object
    autocalculate,            !- View Factor to Ground
    ,                         !- Frame and Divider Name
    1,                        !- Multiplier
    autocalculate,            !- Number of Vertices
    36.428803761221644,       !- Vertex 1 Xcoordinate
    4.795446499175858,        !- Vertex 1 Ycoordinate
    22.95,                    !- Vertex 1 Zcoordinate
    36.428803761221644,       !- Vertex 2 Xcoordinate
    4.795446499175858,        !- Vertex 2 Ycoordinate
    22.05,                    !- Vertex 2 Zcoordinate
    36.366741360898885,       !- Vertex 3 Xcoordinate
    0.1444791,                !- Vertex 3 Ycoordinate
    22.05,                    !- Vertex 3 Zcoordinate
    36.366741360898885,       !- Vertex 4 Xcoordinate
    0.1444791,                !- Vertex 4 Ycoordinate
    22.95;                    !- Vertex 4 Zcoordinate

FENESTRATIONSURFACE:DETAILED,
    Block Poly_87_Residential_3 Storey 7 Wall 0005 window,    !- Name
    Window,                   !- Surface Type
    HSCWZ_Residential_2005_Win,    !- Construction Name
    Block Poly_87_Residential_3 Storey 7 Wall 0005,    !- Building Surface Name
    ,                         !- Outside Boundary Condition Object
    autocalculate,            !- View Factor to Ground
    ,                         !- Frame and Divider Name
    1,                        !- Multiplier
    autocalculate,            !- Number of Vertices
    36.37203692633443,        !- Vertex 1 Xcoordinate
    0.1420802,                !- Vertex 1 Ycoordinate
    22.95,                    !- Vertex 1 Zcoordinate
    36.37203692633443,        !- Vertex 2 Xcoordinate
    0.1420802,                !- Vertex 2 Ycoordinate
    22.05,                    !- Vertex 2 Zcoordinate
    47.014639066879,          !- Vertex 3 Xcoordinate
    7.107564178295e-05,       !- Vertex 3 Ycoordinate
    22.05,                    !- Vertex 3 Zcoordinate
    47.014639066879,          !- Vertex 4 Xcoordinate
    7.107564178295e-05,       !- Vertex 4 Ycoordinate
    22.95;                    !- Vertex 4 Zcoordinate

FENESTRATIONSURFACE:DETAILED,
    Block Poly_87_Residential_3 Storey 7 Wall 0006 window,    !- Name
    Window,                   !- Surface Type
    HSCWZ_Residential_2005_Win,    !- Construction Name
    Block Poly_87_Residential_3 Storey 7 Wall 0006,    !- Building Surface Name
    ,                         !- Outside Boundary Condition Object
    autocalculate,            !- View Factor to Ground
    ,                         !- Frame and Divider Name
    1,                        !- Multiplier
    autocalculate,            !- Number of Vertices
    47.02004431362328,        !- Vertex 1 Xcoordinate
    0.002327177,              !- Vertex 1 Ycoordinate
    22.95,                    !- Vertex 1 Zcoordinate
    47.02004431362328,        !- Vertex 2 Xcoordinate
    0.002327177,              !- Vertex 2 Ycoordinate
    22.05,                    !- Vertex 2 Zcoordinate
    47.177125168153374,       !- Vertex 3 Xcoordinate
    4.652026582837338,        !- Vertex 3 Ycoordinate
    22.05,                    !- Vertex 3 Zcoordinate
    47.177125168153374,       !- Vertex 4 Xcoordinate
    4.652026582837338,        !- Vertex 4 Ycoordinate
    22.95;                    !- Vertex 4 Zcoordinate

FENESTRATIONSURFACE:DETAILED,
    Block Poly_87_Residential_3 Storey 7 Wall 0007 window,    !- Name
    Window,                   !- Surface Type
    HSCWZ_Residential_2005_Win,    !- Construction Name
    Block Poly_87_Residential_3 Storey 7 Wall 0007,    !- Building Surface Name
    ,                         !- Outside Boundary Condition Object
    autocalculate,            !- View Factor to Ground
    ,                         !- Frame and Divider Name
    1,                        !- Multiplier
    autocalculate,            !- Number of Vertices
    47.18172116732556,        !- Vertex 1 Xcoordinate
    4.654238052508561,        !- Vertex 1 Ycoordinate
    22.95,                    !- Vertex 1 Zcoordinate
    47.18172116732556,        !- Vertex 2 Xcoordinate
    4.654238052508561,        !- Vertex 2 Ycoordinate
    22.05,                    !- Vertex 2 Zcoordinate
    56.2074466588315,         !- Vertex 3 Xcoordinate
    4.42305504965526,         !- Vertex 3 Ycoordinate
    22.05,                    !- Vertex 3 Zcoordinate
    56.2074466588315,         !- Vertex 4 Xcoordinate
    4.42305504965526,         !- Vertex 4 Ycoordinate
    22.95;                    !- Vertex 4 Zcoordinate

FENESTRATIONSURFACE:DETAILED,
    Block Poly_87_Residential_3 Storey 7 Wall 0008 window,    !- Name
    Window,                   !- Surface Type
    HSCWZ_Residential_2005_Win,    !- Construction Name
    Block Poly_87_Residential_3 Storey 7 Wall 0008,    !- Building Surface Name
    ,                         !- Outside Boundary Condition Object
    autocalculate,            !- View Factor to Ground
    ,                         !- Frame and Divider Name
    1,                        !- Multiplier
    autocalculate,            !- Number of Vertices
    56.211977856201294,       !- Vertex 1 Xcoordinate
    4.427540175773902,        !- Vertex 1 Ycoordinate
    22.95,                    !- Vertex 1 Zcoordinate
    56.211977856201294,       !- Vertex 2 Xcoordinate
    4.427540175773902,        !- Vertex 2 Ycoordinate
    22.05,                    !- Vertex 2 Zcoordinate
    56.23958470955008,        !- Vertex 3 Xcoordinate
    13.620005163672612,       !- Vertex 3 Ycoordinate
    22.05,                    !- Vertex 3 Zcoordinate
    56.23958470955008,        !- Vertex 4 Xcoordinate
    13.620005163672612,       !- Vertex 4 Ycoordinate
    22.95;                    !- Vertex 4 Zcoordinate

FENESTRATIONSURFACE:DETAILED,
    Block Poly_87_Residential_3 Storey 7 Wall 0009 window,    !- Name
    Window,                   !- Surface Type
    HSCWZ_Residential_2005_Win,    !- Construction Name
    Block Poly_87_Residential_3 Storey 7 Wall 0009,    !- Building Surface Name
    ,                         !- Outside Boundary Condition Object
    autocalculate,            !- View Factor to Ground
    ,                         !- Frame and Divider Name
    1,                        !- Multiplier
    autocalculate,            !- Number of Vertices
    56.211540128609165,       !- Vertex 1 Xcoordinate
    13.625091299078194,       !- Vertex 1 Ycoordinate
    22.95,                    !- Vertex 1 Zcoordinate
    56.211540128609165,       !- Vertex 2 Xcoordinate
    13.625091299078194,       !- Vertex 2 Ycoordinate
    22.05,                    !- Vertex 2 Zcoordinate
    0.1508606,                !- Vertex 3 Xcoordinate
    14.59472485153121,        !- Vertex 3 Ycoordinate
    22.05,                    !- Vertex 3 Zcoordinate
    0.1508606,                !- Vertex 4 Xcoordinate
    14.59472485153121,        !- Vertex 4 Ycoordinate
    22.95;                    !- Vertex 4 Zcoordinate

FENESTRATIONSURFACE:DETAILED,
    Block Poly_87_Residential_3 Storey 7 Wall 0010 window,    !- Name
    Window,                   !- Surface Type
    HSCWZ_Residential_2005_Win,    !- Construction Name
    Block Poly_87_Residential_3 Storey 7 Wall 0010,    !- Building Surface Name
    ,                         !- Outside Boundary Condition Object
    autocalculate,            !- View Factor to Ground
    ,                         !- Frame and Divider Name
    1,                        !- Multiplier
    autocalculate,            !- Number of Vertices
    0.1227408,                !- Vertex 1 Xcoordinate
    14.590609954259591,       !- Vertex 1 Ycoordinate
    22.95,                    !- Vertex 1 Zcoordinate
    0.1227408,                !- Vertex 2 Xcoordinate
    14.590609954259591,       !- Vertex 2 Ycoordinate
    22.05,                    !- Vertex 2 Zcoordinate
    6.140108e-05,             !- Vertex 3 Xcoordinate
    5.39941165311332,         !- Vertex 3 Ycoordinate
    22.05,                    !- Vertex 3 Zcoordinate
    6.140108e-05,             !- Vertex 4 Xcoordinate
    5.39941165311332,         !- Vertex 4 Ycoordinate
    22.95;                    !- Vertex 4 Zcoordinate

FENESTRATIONSURFACE:DETAILED,
    Block Poly_87_Residential_3 Storey 7 Wall 0011 window,    !- Name
    Window,                   !- Surface Type
    HSCWZ_Residential_2005_Win,    !- Construction Name
    Block Poly_87_Residential_3 Storey 7 Wall 0011,    !- Building Surface Name
    ,                         !- Outside Boundary Condition Object
    autocalculate,            !- View Factor to Ground
    ,                         !- Frame and Divider Name
    1,                        !- Multiplier
    autocalculate,            !- Number of Vertices
    0.004185206,              !- Vertex 1 Xcoordinate
    5.3947555935424765,       !- Vertex 1 Ycoordinate
    22.95,                    !- Vertex 1 Zcoordinate
    0.004185206,              !- Vertex 2 Xcoordinate
    5.3947555935424765,       !- Vertex 2 Ycoordinate
    22.05,                    !- Vertex 2 Zcoordinate
    8.366226615788385,        !- Vertex 3 Xcoordinate
    5.283146872143727,        !- Vertex 3 Ycoordinate
    22.05,                    !- Vertex 3 Zcoordinate
    8.366226615788385,        !- Vertex 4 Xcoordinate
    5.283146872143727,        !- Vertex 4 Ycoordinate
    22.95;                    !- Vertex 4 Zcoordinate

FENESTRATIONSURFACE:DETAILED,
    Block Poly_87_Residential_3 Storey 7 Wall 0012 window,    !- Name
    Window,                   !- Surface Type
    HSCWZ_Residential_2005_Win,    !- Construction Name
    Block Poly_87_Residential_3 Storey 7 Wall 0012,    !- Building Surface Name
    ,                         !- Outside Boundary Condition Object
    autocalculate,            !- View Factor to Ground
    ,                         !- Frame and Divider Name
    1,                        !- Multiplier
    autocalculate,            !- Number of Vertices
    8.370380753192352,        !- Vertex 1 Xcoordinate
    5.2807632002669855,       !- Vertex 1 Ycoordinate
    22.95,                    !- Vertex 1 Zcoordinate
    8.370380753192352,        !- Vertex 2 Xcoordinate
    5.2807632002669855,       !- Vertex 2 Ycoordinate
    22.05,                    !- Vertex 2 Zcoordinate
    8.308305876439205,        !- Vertex 3 Xcoordinate
    0.6297955119360705,       !- Vertex 3 Ycoordinate
    22.05,                    !- Vertex 3 Zcoordinate
    8.308305876439205,        !- Vertex 4 Xcoordinate
    0.6297955119360705,       !- Vertex 4 Ycoordinate
    22.95;                    !- Vertex 4 Zcoordinate

FENESTRATIONSURFACE:DETAILED,
    Block Poly_87_Residential_3 Storey 8 Wall 0001 window,    !- Name
    Window,                   !- Surface Type
    HSCWZ_Residential_2005_Win,    !- Construction Name
    Block Poly_87_Residential_3 Storey 8 Wall 0001,    !- Building Surface Name
    ,                         !- Outside Boundary Condition Object
    autocalculate,            !- View Factor to Ground
    ,                         !- Frame and Divider Name
    1,                        !- Multiplier
    autocalculate,            !- Number of Vertices
    8.313601435898395,        !- Vertex 1 Xcoordinate
    0.6273966103503481,       !- Vertex 1 Ycoordinate
    25.95,                    !- Vertex 1 Zcoordinate
    8.313601435898395,        !- Vertex 2 Xcoordinate
    0.6273966103503481,       !- Vertex 2 Ycoordinate
    25.05,                    !- Vertex 2 Zcoordinate
    18.956204112115724,       !- Vertex 3 Xcoordinate
    0.4853589,                !- Vertex 3 Ycoordinate
    25.05,                    !- Vertex 3 Zcoordinate
    18.956204112115724,       !- Vertex 4 Xcoordinate
    0.4853589,                !- Vertex 4 Ycoordinate
    25.95;                    !- Vertex 4 Zcoordinate

FENESTRATIONSURFACE:DETAILED,
    Block Poly_87_Residential_3 Storey 8 Wall 0002 window,    !- Name
    Window,                   !- Surface Type
    HSCWZ_Residential_2005_Win,    !- Construction Name
    Block Poly_87_Residential_3 Storey 8 Wall 0002,    !- Building Surface Name
    ,                         !- Outside Boundary Condition Object
    autocalculate,            !- View Factor to Ground
    ,                         !- Frame and Divider Name
    1,                        !- Multiplier
    autocalculate,            !- Number of Vertices
    18.96160862570512,        !- Vertex 1 Xcoordinate
    0.4875596,                !- Vertex 1 Ycoordinate
    25.95,                    !- Vertex 1 Zcoordinate
    18.96160862570512,        !- Vertex 2 Xcoordinate
    0.4875596,                !- Vertex 2 Ycoordinate
    25.05,                    !- Vertex 2 Zcoordinate
    19.117224101104078,       !- Vertex 3 Xcoordinate
    5.026521704155952,        !- Vertex 3 Ycoordinate
    25.05,                    !- Vertex 3 Zcoordinate
    19.117224101104078,       !- Vertex 4 Xcoordinate
    5.026521704155952,        !- Vertex 4 Ycoordinate
    25.95;                    !- Vertex 4 Zcoordinate

FENESTRATIONSURFACE:DETAILED,
    Block Poly_87_Residential_3 Storey 8 Wall 0003 window,    !- Name
    Window,                   !- Surface Type
    HSCWZ_Residential_2005_Win,    !- Construction Name
    Block Poly_87_Residential_3 Storey 8 Wall 0003,    !- Building Surface Name
    ,                         !- Outside Boundary Condition Object
    autocalculate,            !- View Factor to Ground
    ,                         !- Frame and Divider Name
    1,                        !- Multiplier
    autocalculate,            !- Number of Vertices
    19.12595775314578,        !- Vertex 1 Xcoordinate
    5.028677947391057,        !- Vertex 1 Ycoordinate
    25.95,                    !- Vertex 1 Zcoordinate
    19.12595775314578,        !- Vertex 2 Xcoordinate
    5.028677947391057,        !- Vertex 2 Ycoordinate
    25.05,                    !- Vertex 2 Zcoordinate
    36.42017905706569,        !- Vertex 3 Xcoordinate
    4.797889820262558,        !- Vertex 3 Ycoordinate
    25.05,                    !- Vertex 3 Zcoordinate
    36.42017905706569,        !- Vertex 4 Xcoordinate
    4.797889820262558,        !- Vertex 4 Ycoordinate
    25.95;                    !- Vertex 4 Zcoordinate

FENESTRATIONSURFACE:DETAILED,
    Block Poly_87_Residential_3 Storey 8 Wall 0004 window,    !- Name
    Window,                   !- Surface Type
    HSCWZ_Residential_2005_Win,    !- Construction Name
    Block Poly_87_Residential_3 Storey 8 Wall 0004,    !- Building Surface Name
    ,                         !- Outside Boundary Condition Object
    autocalculate,            !- View Factor to Ground
    ,                         !- Frame and Divider Name
    1,                        !- Multiplier
    autocalculate,            !- Number of Vertices
    36.428803761221644,       !- Vertex 1 Xcoordinate
    4.795446499175858,        !- Vertex 1 Ycoordinate
    25.95,                    !- Vertex 1 Zcoordinate
    36.428803761221644,       !- Vertex 2 Xcoordinate
    4.795446499175858,        !- Vertex 2 Ycoordinate
    25.05,                    !- Vertex 2 Zcoordinate
    36.366741360898885,       !- Vertex 3 Xcoordinate
    0.1444791,                !- Vertex 3 Ycoordinate
    25.05,                    !- Vertex 3 Zcoordinate
    36.366741360898885,       !- Vertex 4 Xcoordinate
    0.1444791,                !- Vertex 4 Ycoordinate
    25.95;                    !- Vertex 4 Zcoordinate

FENESTRATIONSURFACE:DETAILED,
    Block Poly_87_Residential_3 Storey 8 Wall 0005 window,    !- Name
    Window,                   !- Surface Type
    HSCWZ_Residential_2005_Win,    !- Construction Name
    Block Poly_87_Residential_3 Storey 8 Wall 0005,    !- Building Surface Name
    ,                         !- Outside Boundary Condition Object
    autocalculate,            !- View Factor to Ground
    ,                         !- Frame and Divider Name
    1,                        !- Multiplier
    autocalculate,            !- Number of Vertices
    36.37203692633443,        !- Vertex 1 Xcoordinate
    0.1420802,                !- Vertex 1 Ycoordinate
    25.95,                    !- Vertex 1 Zcoordinate
    36.37203692633443,        !- Vertex 2 Xcoordinate
    0.1420802,                !- Vertex 2 Ycoordinate
    25.05,                    !- Vertex 2 Zcoordinate
    47.014639066879,          !- Vertex 3 Xcoordinate
    7.107564178295e-05,       !- Vertex 3 Ycoordinate
    25.05,                    !- Vertex 3 Zcoordinate
    47.014639066879,          !- Vertex 4 Xcoordinate
    7.107564178295e-05,       !- Vertex 4 Ycoordinate
    25.95;                    !- Vertex 4 Zcoordinate

FENESTRATIONSURFACE:DETAILED,
    Block Poly_87_Residential_3 Storey 8 Wall 0006 window,    !- Name
    Window,                   !- Surface Type
    HSCWZ_Residential_2005_Win,    !- Construction Name
    Block Poly_87_Residential_3 Storey 8 Wall 0006,    !- Building Surface Name
    ,                         !- Outside Boundary Condition Object
    autocalculate,            !- View Factor to Ground
    ,                         !- Frame and Divider Name
    1,                        !- Multiplier
    autocalculate,            !- Number of Vertices
    47.02004431362328,        !- Vertex 1 Xcoordinate
    0.002327177,              !- Vertex 1 Ycoordinate
    25.95,                    !- Vertex 1 Zcoordinate
    47.02004431362328,        !- Vertex 2 Xcoordinate
    0.002327177,              !- Vertex 2 Ycoordinate
    25.05,                    !- Vertex 2 Zcoordinate
    47.177125168153374,       !- Vertex 3 Xcoordinate
    4.652026582837338,        !- Vertex 3 Ycoordinate
    25.05,                    !- Vertex 3 Zcoordinate
    47.177125168153374,       !- Vertex 4 Xcoordinate
    4.652026582837338,        !- Vertex 4 Ycoordinate
    25.95;                    !- Vertex 4 Zcoordinate

FENESTRATIONSURFACE:DETAILED,
    Block Poly_87_Residential_3 Storey 8 Wall 0007 window,    !- Name
    Window,                   !- Surface Type
    HSCWZ_Residential_2005_Win,    !- Construction Name
    Block Poly_87_Residential_3 Storey 8 Wall 0007,    !- Building Surface Name
    ,                         !- Outside Boundary Condition Object
    autocalculate,            !- View Factor to Ground
    ,                         !- Frame and Divider Name
    1,                        !- Multiplier
    autocalculate,            !- Number of Vertices
    47.18172116732556,        !- Vertex 1 Xcoordinate
    4.654238052508561,        !- Vertex 1 Ycoordinate
    25.95,                    !- Vertex 1 Zcoordinate
    47.18172116732556,        !- Vertex 2 Xcoordinate
    4.654238052508561,        !- Vertex 2 Ycoordinate
    25.05,                    !- Vertex 2 Zcoordinate
    56.2074466588315,         !- Vertex 3 Xcoordinate
    4.42305504965526,         !- Vertex 3 Ycoordinate
    25.05,                    !- Vertex 3 Zcoordinate
    56.2074466588315,         !- Vertex 4 Xcoordinate
    4.42305504965526,         !- Vertex 4 Ycoordinate
    25.95;                    !- Vertex 4 Zcoordinate

FENESTRATIONSURFACE:DETAILED,
    Block Poly_87_Residential_3 Storey 8 Wall 0008 window,    !- Name
    Window,                   !- Surface Type
    HSCWZ_Residential_2005_Win,    !- Construction Name
    Block Poly_87_Residential_3 Storey 8 Wall 0008,    !- Building Surface Name
    ,                         !- Outside Boundary Condition Object
    autocalculate,            !- View Factor to Ground
    ,                         !- Frame and Divider Name
    1,                        !- Multiplier
    autocalculate,            !- Number of Vertices
    56.211977856201294,       !- Vertex 1 Xcoordinate
    4.427540175773902,        !- Vertex 1 Ycoordinate
    25.95,                    !- Vertex 1 Zcoordinate
    56.211977856201294,       !- Vertex 2 Xcoordinate
    4.427540175773902,        !- Vertex 2 Ycoordinate
    25.05,                    !- Vertex 2 Zcoordinate
    56.23958470955008,        !- Vertex 3 Xcoordinate
    13.620005163672612,       !- Vertex 3 Ycoordinate
    25.05,                    !- Vertex 3 Zcoordinate
    56.23958470955008,        !- Vertex 4 Xcoordinate
    13.620005163672612,       !- Vertex 4 Ycoordinate
    25.95;                    !- Vertex 4 Zcoordinate

FENESTRATIONSURFACE:DETAILED,
    Block Poly_87_Residential_3 Storey 8 Wall 0009 window,    !- Name
    Window,                   !- Surface Type
    HSCWZ_Residential_2005_Win,    !- Construction Name
    Block Poly_87_Residential_3 Storey 8 Wall 0009,    !- Building Surface Name
    ,                         !- Outside Boundary Condition Object
    autocalculate,            !- View Factor to Ground
    ,                         !- Frame and Divider Name
    1,                        !- Multiplier
    autocalculate,            !- Number of Vertices
    56.211540128609165,       !- Vertex 1 Xcoordinate
    13.625091299078194,       !- Vertex 1 Ycoordinate
    25.95,                    !- Vertex 1 Zcoordinate
    56.211540128609165,       !- Vertex 2 Xcoordinate
    13.625091299078194,       !- Vertex 2 Ycoordinate
    25.05,                    !- Vertex 2 Zcoordinate
    0.1508606,                !- Vertex 3 Xcoordinate
    14.59472485153121,        !- Vertex 3 Ycoordinate
    25.05,                    !- Vertex 3 Zcoordinate
    0.1508606,                !- Vertex 4 Xcoordinate
    14.59472485153121,        !- Vertex 4 Ycoordinate
    25.95;                    !- Vertex 4 Zcoordinate

FENESTRATIONSURFACE:DETAILED,
    Block Poly_87_Residential_3 Storey 8 Wall 0010 window,    !- Name
    Window,                   !- Surface Type
    HSCWZ_Residential_2005_Win,    !- Construction Name
    Block Poly_87_Residential_3 Storey 8 Wall 0010,    !- Building Surface Name
    ,                         !- Outside Boundary Condition Object
    autocalculate,            !- View Factor to Ground
    ,                         !- Frame and Divider Name
    1,                        !- Multiplier
    autocalculate,            !- Number of Vertices
    0.1227408,                !- Vertex 1 Xcoordinate
    14.590609954259591,       !- Vertex 1 Ycoordinate
    25.95,                    !- Vertex 1 Zcoordinate
    0.1227408,                !- Vertex 2 Xcoordinate
    14.590609954259591,       !- Vertex 2 Ycoordinate
    25.05,                    !- Vertex 2 Zcoordinate
    6.140108e-05,             !- Vertex 3 Xcoordinate
    5.39941165311332,         !- Vertex 3 Ycoordinate
    25.05,                    !- Vertex 3 Zcoordinate
    6.140108e-05,             !- Vertex 4 Xcoordinate
    5.39941165311332,         !- Vertex 4 Ycoordinate
    25.95;                    !- Vertex 4 Zcoordinate

FENESTRATIONSURFACE:DETAILED,
    Block Poly_87_Residential_3 Storey 8 Wall 0011 window,    !- Name
    Window,                   !- Surface Type
    HSCWZ_Residential_2005_Win,    !- Construction Name
    Block Poly_87_Residential_3 Storey 8 Wall 0011,    !- Building Surface Name
    ,                         !- Outside Boundary Condition Object
    autocalculate,            !- View Factor to Ground
    ,                         !- Frame and Divider Name
    1,                        !- Multiplier
    autocalculate,            !- Number of Vertices
    0.004185206,              !- Vertex 1 Xcoordinate
    5.3947555935424765,       !- Vertex 1 Ycoordinate
    25.95,                    !- Vertex 1 Zcoordinate
    0.004185206,              !- Vertex 2 Xcoordinate
    5.3947555935424765,       !- Vertex 2 Ycoordinate
    25.05,                    !- Vertex 2 Zcoordinate
    8.366226615788385,        !- Vertex 3 Xcoordinate
    5.283146872143727,        !- Vertex 3 Ycoordinate
    25.05,                    !- Vertex 3 Zcoordinate
    8.366226615788385,        !- Vertex 4 Xcoordinate
    5.283146872143727,        !- Vertex 4 Ycoordinate
    25.95;                    !- Vertex 4 Zcoordinate

FENESTRATIONSURFACE:DETAILED,
    Block Poly_87_Residential_3 Storey 8 Wall 0012 window,    !- Name
    Window,                   !- Surface Type
    HSCWZ_Residential_2005_Win,    !- Construction Name
    Block Poly_87_Residential_3 Storey 8 Wall 0012,    !- Building Surface Name
    ,                         !- Outside Boundary Condition Object
    autocalculate,            !- View Factor to Ground
    ,                         !- Frame and Divider Name
    1,                        !- Multiplier
    autocalculate,            !- Number of Vertices
    8.370380753192352,        !- Vertex 1 Xcoordinate
    5.2807632002669855,       !- Vertex 1 Ycoordinate
    25.95,                    !- Vertex 1 Zcoordinate
    8.370380753192352,        !- Vertex 2 Xcoordinate
    5.2807632002669855,       !- Vertex 2 Ycoordinate
    25.05,                    !- Vertex 2 Zcoordinate
    8.308305876439205,        !- Vertex 3 Xcoordinate
    0.6297955119360705,       !- Vertex 3 Ycoordinate
    25.05,                    !- Vertex 3 Zcoordinate
    8.308305876439205,        !- Vertex 4 Xcoordinate
    0.6297955119360705,       !- Vertex 4 Ycoordinate
    25.95;                    !- Vertex 4 Zcoordinate

FENESTRATIONSURFACE:DETAILED,
    Block Poly_87_Residential_3 Storey 9 Wall 0001 window,    !- Name
    Window,                   !- Surface Type
    HSCWZ_Residential_2005_Win,    !- Construction Name
    Block Poly_87_Residential_3 Storey 9 Wall 0001,    !- Building Surface Name
    ,                         !- Outside Boundary Condition Object
    autocalculate,            !- View Factor to Ground
    ,                         !- Frame and Divider Name
    1,                        !- Multiplier
    autocalculate,            !- Number of Vertices
    8.313601435898395,        !- Vertex 1 Xcoordinate
    0.6273966103503481,       !- Vertex 1 Ycoordinate
    28.95,                    !- Vertex 1 Zcoordinate
    8.313601435898395,        !- Vertex 2 Xcoordinate
    0.6273966103503481,       !- Vertex 2 Ycoordinate
    28.05,                    !- Vertex 2 Zcoordinate
    18.956204112115724,       !- Vertex 3 Xcoordinate
    0.4853589,                !- Vertex 3 Ycoordinate
    28.05,                    !- Vertex 3 Zcoordinate
    18.956204112115724,       !- Vertex 4 Xcoordinate
    0.4853589,                !- Vertex 4 Ycoordinate
    28.95;                    !- Vertex 4 Zcoordinate

FENESTRATIONSURFACE:DETAILED,
    Block Poly_87_Residential_3 Storey 9 Wall 0002 window,    !- Name
    Window,                   !- Surface Type
    HSCWZ_Residential_2005_Win,    !- Construction Name
    Block Poly_87_Residential_3 Storey 9 Wall 0002,    !- Building Surface Name
    ,                         !- Outside Boundary Condition Object
    autocalculate,            !- View Factor to Ground
    ,                         !- Frame and Divider Name
    1,                        !- Multiplier
    autocalculate,            !- Number of Vertices
    18.96160862570512,        !- Vertex 1 Xcoordinate
    0.4875596,                !- Vertex 1 Ycoordinate
    28.95,                    !- Vertex 1 Zcoordinate
    18.96160862570512,        !- Vertex 2 Xcoordinate
    0.4875596,                !- Vertex 2 Ycoordinate
    28.05,                    !- Vertex 2 Zcoordinate
    19.117224101104078,       !- Vertex 3 Xcoordinate
    5.026521704155952,        !- Vertex 3 Ycoordinate
    28.05,                    !- Vertex 3 Zcoordinate
    19.117224101104078,       !- Vertex 4 Xcoordinate
    5.026521704155952,        !- Vertex 4 Ycoordinate
    28.95;                    !- Vertex 4 Zcoordinate

FENESTRATIONSURFACE:DETAILED,
    Block Poly_87_Residential_3 Storey 9 Wall 0003 window,    !- Name
    Window,                   !- Surface Type
    HSCWZ_Residential_2005_Win,    !- Construction Name
    Block Poly_87_Residential_3 Storey 9 Wall 0003,    !- Building Surface Name
    ,                         !- Outside Boundary Condition Object
    autocalculate,            !- View Factor to Ground
    ,                         !- Frame and Divider Name
    1,                        !- Multiplier
    autocalculate,            !- Number of Vertices
    19.12595775314578,        !- Vertex 1 Xcoordinate
    5.028677947391057,        !- Vertex 1 Ycoordinate
    28.95,                    !- Vertex 1 Zcoordinate
    19.12595775314578,        !- Vertex 2 Xcoordinate
    5.028677947391057,        !- Vertex 2 Ycoordinate
    28.05,                    !- Vertex 2 Zcoordinate
    36.42017905706569,        !- Vertex 3 Xcoordinate
    4.797889820262558,        !- Vertex 3 Ycoordinate
    28.05,                    !- Vertex 3 Zcoordinate
    36.42017905706569,        !- Vertex 4 Xcoordinate
    4.797889820262558,        !- Vertex 4 Ycoordinate
    28.95;                    !- Vertex 4 Zcoordinate

FENESTRATIONSURFACE:DETAILED,
    Block Poly_87_Residential_3 Storey 9 Wall 0004 window,    !- Name
    Window,                   !- Surface Type
    HSCWZ_Residential_2005_Win,    !- Construction Name
    Block Poly_87_Residential_3 Storey 9 Wall 0004,    !- Building Surface Name
    ,                         !- Outside Boundary Condition Object
    autocalculate,            !- View Factor to Ground
    ,                         !- Frame and Divider Name
    1,                        !- Multiplier
    autocalculate,            !- Number of Vertices
    36.428803761221644,       !- Vertex 1 Xcoordinate
    4.795446499175858,        !- Vertex 1 Ycoordinate
    28.95,                    !- Vertex 1 Zcoordinate
    36.428803761221644,       !- Vertex 2 Xcoordinate
    4.795446499175858,        !- Vertex 2 Ycoordinate
    28.05,                    !- Vertex 2 Zcoordinate
    36.366741360898885,       !- Vertex 3 Xcoordinate
    0.1444791,                !- Vertex 3 Ycoordinate
    28.05,                    !- Vertex 3 Zcoordinate
    36.366741360898885,       !- Vertex 4 Xcoordinate
    0.1444791,                !- Vertex 4 Ycoordinate
    28.95;                    !- Vertex 4 Zcoordinate

FENESTRATIONSURFACE:DETAILED,
    Block Poly_87_Residential_3 Storey 9 Wall 0005 window,    !- Name
    Window,                   !- Surface Type
    HSCWZ_Residential_2005_Win,    !- Construction Name
    Block Poly_87_Residential_3 Storey 9 Wall 0005,    !- Building Surface Name
    ,                         !- Outside Boundary Condition Object
    autocalculate,            !- View Factor to Ground
    ,                         !- Frame and Divider Name
    1,                        !- Multiplier
    autocalculate,            !- Number of Vertices
    36.37203692633443,        !- Vertex 1 Xcoordinate
    0.1420802,                !- Vertex 1 Ycoordinate
    28.95,                    !- Vertex 1 Zcoordinate
    36.37203692633443,        !- Vertex 2 Xcoordinate
    0.1420802,                !- Vertex 2 Ycoordinate
    28.05,                    !- Vertex 2 Zcoordinate
    47.014639066879,          !- Vertex 3 Xcoordinate
    7.107564178295e-05,       !- Vertex 3 Ycoordinate
    28.05,                    !- Vertex 3 Zcoordinate
    47.014639066879,          !- Vertex 4 Xcoordinate
    7.107564178295e-05,       !- Vertex 4 Ycoordinate
    28.95;                    !- Vertex 4 Zcoordinate

FENESTRATIONSURFACE:DETAILED,
    Block Poly_87_Residential_3 Storey 9 Wall 0006 window,    !- Name
    Window,                   !- Surface Type
    HSCWZ_Residential_2005_Win,    !- Construction Name
    Block Poly_87_Residential_3 Storey 9 Wall 0006,    !- Building Surface Name
    ,                         !- Outside Boundary Condition Object
    autocalculate,            !- View Factor to Ground
    ,                         !- Frame and Divider Name
    1,                        !- Multiplier
    autocalculate,            !- Number of Vertices
    47.02004431362328,        !- Vertex 1 Xcoordinate
    0.002327177,              !- Vertex 1 Ycoordinate
    28.95,                    !- Vertex 1 Zcoordinate
    47.02004431362328,        !- Vertex 2 Xcoordinate
    0.002327177,              !- Vertex 2 Ycoordinate
    28.05,                    !- Vertex 2 Zcoordinate
    47.177125168153374,       !- Vertex 3 Xcoordinate
    4.652026582837338,        !- Vertex 3 Ycoordinate
    28.05,                    !- Vertex 3 Zcoordinate
    47.177125168153374,       !- Vertex 4 Xcoordinate
    4.652026582837338,        !- Vertex 4 Ycoordinate
    28.95;                    !- Vertex 4 Zcoordinate

FENESTRATIONSURFACE:DETAILED,
    Block Poly_87_Residential_3 Storey 9 Wall 0007 window,    !- Name
    Window,                   !- Surface Type
    HSCWZ_Residential_2005_Win,    !- Construction Name
    Block Poly_87_Residential_3 Storey 9 Wall 0007,    !- Building Surface Name
    ,                         !- Outside Boundary Condition Object
    autocalculate,            !- View Factor to Ground
    ,                         !- Frame and Divider Name
    1,                        !- Multiplier
    autocalculate,            !- Number of Vertices
    47.18172116732556,        !- Vertex 1 Xcoordinate
    4.654238052508561,        !- Vertex 1 Ycoordinate
    28.95,                    !- Vertex 1 Zcoordinate
    47.18172116732556,        !- Vertex 2 Xcoordinate
    4.654238052508561,        !- Vertex 2 Ycoordinate
    28.05,                    !- Vertex 2 Zcoordinate
    56.2074466588315,         !- Vertex 3 Xcoordinate
    4.42305504965526,         !- Vertex 3 Ycoordinate
    28.05,                    !- Vertex 3 Zcoordinate
    56.2074466588315,         !- Vertex 4 Xcoordinate
    4.42305504965526,         !- Vertex 4 Ycoordinate
    28.95;                    !- Vertex 4 Zcoordinate

FENESTRATIONSURFACE:DETAILED,
    Block Poly_87_Residential_3 Storey 9 Wall 0008 window,    !- Name
    Window,                   !- Surface Type
    HSCWZ_Residential_2005_Win,    !- Construction Name
    Block Poly_87_Residential_3 Storey 9 Wall 0008,    !- Building Surface Name
    ,                         !- Outside Boundary Condition Object
    autocalculate,            !- View Factor to Ground
    ,                         !- Frame and Divider Name
    1,                        !- Multiplier
    autocalculate,            !- Number of Vertices
    56.211977856201294,       !- Vertex 1 Xcoordinate
    4.427540175773902,        !- Vertex 1 Ycoordinate
    28.95,                    !- Vertex 1 Zcoordinate
    56.211977856201294,       !- Vertex 2 Xcoordinate
    4.427540175773902,        !- Vertex 2 Ycoordinate
    28.05,                    !- Vertex 2 Zcoordinate
    56.23958470955008,        !- Vertex 3 Xcoordinate
    13.620005163672612,       !- Vertex 3 Ycoordinate
    28.05,                    !- Vertex 3 Zcoordinate
    56.23958470955008,        !- Vertex 4 Xcoordinate
    13.620005163672612,       !- Vertex 4 Ycoordinate
    28.95;                    !- Vertex 4 Zcoordinate

FENESTRATIONSURFACE:DETAILED,
    Block Poly_87_Residential_3 Storey 9 Wall 0009 window,    !- Name
    Window,                   !- Surface Type
    HSCWZ_Residential_2005_Win,    !- Construction Name
    Block Poly_87_Residential_3 Storey 9 Wall 0009,    !- Building Surface Name
    ,                         !- Outside Boundary Condition Object
    autocalculate,            !- View Factor to Ground
    ,                         !- Frame and Divider Name
    1,                        !- Multiplier
    autocalculate,            !- Number of Vertices
    56.211540128609165,       !- Vertex 1 Xcoordinate
    13.625091299078194,       !- Vertex 1 Ycoordinate
    28.95,                    !- Vertex 1 Zcoordinate
    56.211540128609165,       !- Vertex 2 Xcoordinate
    13.625091299078194,       !- Vertex 2 Ycoordinate
    28.05,                    !- Vertex 2 Zcoordinate
    0.1508606,                !- Vertex 3 Xcoordinate
    14.59472485153121,        !- Vertex 3 Ycoordinate
    28.05,                    !- Vertex 3 Zcoordinate
    0.1508606,                !- Vertex 4 Xcoordinate
    14.59472485153121,        !- Vertex 4 Ycoordinate
    28.95;                    !- Vertex 4 Zcoordinate

FENESTRATIONSURFACE:DETAILED,
    Block Poly_87_Residential_3 Storey 9 Wall 0010 window,    !- Name
    Window,                   !- Surface Type
    HSCWZ_Residential_2005_Win,    !- Construction Name
    Block Poly_87_Residential_3 Storey 9 Wall 0010,    !- Building Surface Name
    ,                         !- Outside Boundary Condition Object
    autocalculate,            !- View Factor to Ground
    ,                         !- Frame and Divider Name
    1,                        !- Multiplier
    autocalculate,            !- Number of Vertices
    0.1227408,                !- Vertex 1 Xcoordinate
    14.590609954259591,       !- Vertex 1 Ycoordinate
    28.95,                    !- Vertex 1 Zcoordinate
    0.1227408,                !- Vertex 2 Xcoordinate
    14.590609954259591,       !- Vertex 2 Ycoordinate
    28.05,                    !- Vertex 2 Zcoordinate
    6.140108e-05,             !- Vertex 3 Xcoordinate
    5.39941165311332,         !- Vertex 3 Ycoordinate
    28.05,                    !- Vertex 3 Zcoordinate
    6.140108e-05,             !- Vertex 4 Xcoordinate
    5.39941165311332,         !- Vertex 4 Ycoordinate
    28.95;                    !- Vertex 4 Zcoordinate

FENESTRATIONSURFACE:DETAILED,
    Block Poly_87_Residential_3 Storey 9 Wall 0011 window,    !- Name
    Window,                   !- Surface Type
    HSCWZ_Residential_2005_Win,    !- Construction Name
    Block Poly_87_Residential_3 Storey 9 Wall 0011,    !- Building Surface Name
    ,                         !- Outside Boundary Condition Object
    autocalculate,            !- View Factor to Ground
    ,                         !- Frame and Divider Name
    1,                        !- Multiplier
    autocalculate,            !- Number of Vertices
    0.004185206,              !- Vertex 1 Xcoordinate
    5.3947555935424765,       !- Vertex 1 Ycoordinate
    28.95,                    !- Vertex 1 Zcoordinate
    0.004185206,              !- Vertex 2 Xcoordinate
    5.3947555935424765,       !- Vertex 2 Ycoordinate
    28.05,                    !- Vertex 2 Zcoordinate
    8.366226615788385,        !- Vertex 3 Xcoordinate
    5.283146872143727,        !- Vertex 3 Ycoordinate
    28.05,                    !- Vertex 3 Zcoordinate
    8.366226615788385,        !- Vertex 4 Xcoordinate
    5.283146872143727,        !- Vertex 4 Ycoordinate
    28.95;                    !- Vertex 4 Zcoordinate

FENESTRATIONSURFACE:DETAILED,
    Block Poly_87_Residential_3 Storey 9 Wall 0012 window,    !- Name
    Window,                   !- Surface Type
    HSCWZ_Residential_2005_Win,    !- Construction Name
    Block Poly_87_Residential_3 Storey 9 Wall 0012,    !- Building Surface Name
    ,                         !- Outside Boundary Condition Object
    autocalculate,            !- View Factor to Ground
    ,                         !- Frame and Divider Name
    1,                        !- Multiplier
    autocalculate,            !- Number of Vertices
    8.370380753192352,        !- Vertex 1 Xcoordinate
    5.2807632002669855,       !- Vertex 1 Ycoordinate
    28.95,                    !- Vertex 1 Zcoordinate
    8.370380753192352,        !- Vertex 2 Xcoordinate
    5.2807632002669855,       !- Vertex 2 Ycoordinate
    28.05,                    !- Vertex 2 Zcoordinate
    8.308305876439205,        !- Vertex 3 Xcoordinate
    0.6297955119360705,       !- Vertex 3 Ycoordinate
    28.05,                    !- Vertex 3 Zcoordinate
    8.308305876439205,        !- Vertex 4 Xcoordinate
    0.6297955119360705,       !- Vertex 4 Ycoordinate
    28.95;                    !- Vertex 4 Zcoordinate

FENESTRATIONSURFACE:DETAILED,
    Block Poly_87_Residential_3 Storey 10 Wall 0001 window,    !- Name
    Window,                   !- Surface Type
    HSCWZ_Residential_2005_Win,    !- Construction Name
    Block Poly_87_Residential_3 Storey 10 Wall 0001,    !- Building Surface Name
    ,                         !- Outside Boundary Condition Object
    autocalculate,            !- View Factor to Ground
    ,                         !- Frame and Divider Name
    1,                        !- Multiplier
    autocalculate,            !- Number of Vertices
    8.313601435898395,        !- Vertex 1 Xcoordinate
    0.6273966103503481,       !- Vertex 1 Ycoordinate
    31.95,                    !- Vertex 1 Zcoordinate
    8.313601435898395,        !- Vertex 2 Xcoordinate
    0.6273966103503481,       !- Vertex 2 Ycoordinate
    31.05,                    !- Vertex 2 Zcoordinate
    18.956204112115724,       !- Vertex 3 Xcoordinate
    0.4853589,                !- Vertex 3 Ycoordinate
    31.05,                    !- Vertex 3 Zcoordinate
    18.956204112115724,       !- Vertex 4 Xcoordinate
    0.4853589,                !- Vertex 4 Ycoordinate
    31.95;                    !- Vertex 4 Zcoordinate

FENESTRATIONSURFACE:DETAILED,
    Block Poly_87_Residential_3 Storey 10 Wall 0002 window,    !- Name
    Window,                   !- Surface Type
    HSCWZ_Residential_2005_Win,    !- Construction Name
    Block Poly_87_Residential_3 Storey 10 Wall 0002,    !- Building Surface Name
    ,                         !- Outside Boundary Condition Object
    autocalculate,            !- View Factor to Ground
    ,                         !- Frame and Divider Name
    1,                        !- Multiplier
    autocalculate,            !- Number of Vertices
    18.96160862570512,        !- Vertex 1 Xcoordinate
    0.4875596,                !- Vertex 1 Ycoordinate
    31.95,                    !- Vertex 1 Zcoordinate
    18.96160862570512,        !- Vertex 2 Xcoordinate
    0.4875596,                !- Vertex 2 Ycoordinate
    31.05,                    !- Vertex 2 Zcoordinate
    19.117224101104078,       !- Vertex 3 Xcoordinate
    5.026521704155952,        !- Vertex 3 Ycoordinate
    31.05,                    !- Vertex 3 Zcoordinate
    19.117224101104078,       !- Vertex 4 Xcoordinate
    5.026521704155952,        !- Vertex 4 Ycoordinate
    31.95;                    !- Vertex 4 Zcoordinate

FENESTRATIONSURFACE:DETAILED,
    Block Poly_87_Residential_3 Storey 10 Wall 0003 window,    !- Name
    Window,                   !- Surface Type
    HSCWZ_Residential_2005_Win,    !- Construction Name
    Block Poly_87_Residential_3 Storey 10 Wall 0003,    !- Building Surface Name
    ,                         !- Outside Boundary Condition Object
    autocalculate,            !- View Factor to Ground
    ,                         !- Frame and Divider Name
    1,                        !- Multiplier
    autocalculate,            !- Number of Vertices
    19.12595775314578,        !- Vertex 1 Xcoordinate
    5.028677947391057,        !- Vertex 1 Ycoordinate
    31.95,                    !- Vertex 1 Zcoordinate
    19.12595775314578,        !- Vertex 2 Xcoordinate
    5.028677947391057,        !- Vertex 2 Ycoordinate
    31.05,                    !- Vertex 2 Zcoordinate
    36.42017905706569,        !- Vertex 3 Xcoordinate
    4.797889820262558,        !- Vertex 3 Ycoordinate
    31.05,                    !- Vertex 3 Zcoordinate
    36.42017905706569,        !- Vertex 4 Xcoordinate
    4.797889820262558,        !- Vertex 4 Ycoordinate
    31.95;                    !- Vertex 4 Zcoordinate

FENESTRATIONSURFACE:DETAILED,
    Block Poly_87_Residential_3 Storey 10 Wall 0004 window,    !- Name
    Window,                   !- Surface Type
    HSCWZ_Residential_2005_Win,    !- Construction Name
    Block Poly_87_Residential_3 Storey 10 Wall 0004,    !- Building Surface Name
    ,                         !- Outside Boundary Condition Object
    autocalculate,            !- View Factor to Ground
    ,                         !- Frame and Divider Name
    1,                        !- Multiplier
    autocalculate,            !- Number of Vertices
    36.428803761221644,       !- Vertex 1 Xcoordinate
    4.795446499175858,        !- Vertex 1 Ycoordinate
    31.95,                    !- Vertex 1 Zcoordinate
    36.428803761221644,       !- Vertex 2 Xcoordinate
    4.795446499175858,        !- Vertex 2 Ycoordinate
    31.05,                    !- Vertex 2 Zcoordinate
    36.366741360898885,       !- Vertex 3 Xcoordinate
    0.1444791,                !- Vertex 3 Ycoordinate
    31.05,                    !- Vertex 3 Zcoordinate
    36.366741360898885,       !- Vertex 4 Xcoordinate
    0.1444791,                !- Vertex 4 Ycoordinate
    31.95;                    !- Vertex 4 Zcoordinate

FENESTRATIONSURFACE:DETAILED,
    Block Poly_87_Residential_3 Storey 10 Wall 0005 window,    !- Name
    Window,                   !- Surface Type
    HSCWZ_Residential_2005_Win,    !- Construction Name
    Block Poly_87_Residential_3 Storey 10 Wall 0005,    !- Building Surface Name
    ,                         !- Outside Boundary Condition Object
    autocalculate,            !- View Factor to Ground
    ,                         !- Frame and Divider Name
    1,                        !- Multiplier
    autocalculate,            !- Number of Vertices
    36.37203692633443,        !- Vertex 1 Xcoordinate
    0.1420802,                !- Vertex 1 Ycoordinate
    31.95,                    !- Vertex 1 Zcoordinate
    36.37203692633443,        !- Vertex 2 Xcoordinate
    0.1420802,                !- Vertex 2 Ycoordinate
    31.05,                    !- Vertex 2 Zcoordinate
    47.014639066879,          !- Vertex 3 Xcoordinate
    7.107564178295e-05,       !- Vertex 3 Ycoordinate
    31.05,                    !- Vertex 3 Zcoordinate
    47.014639066879,          !- Vertex 4 Xcoordinate
    7.107564178295e-05,       !- Vertex 4 Ycoordinate
    31.95;                    !- Vertex 4 Zcoordinate

FENESTRATIONSURFACE:DETAILED,
    Block Poly_87_Residential_3 Storey 10 Wall 0006 window,    !- Name
    Window,                   !- Surface Type
    HSCWZ_Residential_2005_Win,    !- Construction Name
    Block Poly_87_Residential_3 Storey 10 Wall 0006,    !- Building Surface Name
    ,                         !- Outside Boundary Condition Object
    autocalculate,            !- View Factor to Ground
    ,                         !- Frame and Divider Name
    1,                        !- Multiplier
    autocalculate,            !- Number of Vertices
    47.02004431362328,        !- Vertex 1 Xcoordinate
    0.002327177,              !- Vertex 1 Ycoordinate
    31.95,                    !- Vertex 1 Zcoordinate
    47.02004431362328,        !- Vertex 2 Xcoordinate
    0.002327177,              !- Vertex 2 Ycoordinate
    31.05,                    !- Vertex 2 Zcoordinate
    47.177125168153374,       !- Vertex 3 Xcoordinate
    4.652026582837338,        !- Vertex 3 Ycoordinate
    31.05,                    !- Vertex 3 Zcoordinate
    47.177125168153374,       !- Vertex 4 Xcoordinate
    4.652026582837338,        !- Vertex 4 Ycoordinate
    31.95;                    !- Vertex 4 Zcoordinate

FENESTRATIONSURFACE:DETAILED,
    Block Poly_87_Residential_3 Storey 10 Wall 0007 window,    !- Name
    Window,                   !- Surface Type
    HSCWZ_Residential_2005_Win,    !- Construction Name
    Block Poly_87_Residential_3 Storey 10 Wall 0007,    !- Building Surface Name
    ,                         !- Outside Boundary Condition Object
    autocalculate,            !- View Factor to Ground
    ,                         !- Frame and Divider Name
    1,                        !- Multiplier
    autocalculate,            !- Number of Vertices
    47.18172116732556,        !- Vertex 1 Xcoordinate
    4.654238052508561,        !- Vertex 1 Ycoordinate
    31.95,                    !- Vertex 1 Zcoordinate
    47.18172116732556,        !- Vertex 2 Xcoordinate
    4.654238052508561,        !- Vertex 2 Ycoordinate
    31.05,                    !- Vertex 2 Zcoordinate
    56.2074466588315,         !- Vertex 3 Xcoordinate
    4.42305504965526,         !- Vertex 3 Ycoordinate
    31.05,                    !- Vertex 3 Zcoordinate
    56.2074466588315,         !- Vertex 4 Xcoordinate
    4.42305504965526,         !- Vertex 4 Ycoordinate
    31.95;                    !- Vertex 4 Zcoordinate

FENESTRATIONSURFACE:DETAILED,
    Block Poly_87_Residential_3 Storey 10 Wall 0008 window,    !- Name
    Window,                   !- Surface Type
    HSCWZ_Residential_2005_Win,    !- Construction Name
    Block Poly_87_Residential_3 Storey 10 Wall 0008,    !- Building Surface Name
    ,                         !- Outside Boundary Condition Object
    autocalculate,            !- View Factor to Ground
    ,                         !- Frame and Divider Name
    1,                        !- Multiplier
    autocalculate,            !- Number of Vertices
    56.211977856201294,       !- Vertex 1 Xcoordinate
    4.427540175773902,        !- Vertex 1 Ycoordinate
    31.95,                    !- Vertex 1 Zcoordinate
    56.211977856201294,       !- Vertex 2 Xcoordinate
    4.427540175773902,        !- Vertex 2 Ycoordinate
    31.05,                    !- Vertex 2 Zcoordinate
    56.23958470955008,        !- Vertex 3 Xcoordinate
    13.620005163672612,       !- Vertex 3 Ycoordinate
    31.05,                    !- Vertex 3 Zcoordinate
    56.23958470955008,        !- Vertex 4 Xcoordinate
    13.620005163672612,       !- Vertex 4 Ycoordinate
    31.95;                    !- Vertex 4 Zcoordinate

FENESTRATIONSURFACE:DETAILED,
    Block Poly_87_Residential_3 Storey 10 Wall 0009 window,    !- Name
    Window,                   !- Surface Type
    HSCWZ_Residential_2005_Win,    !- Construction Name
    Block Poly_87_Residential_3 Storey 10 Wall 0009,    !- Building Surface Name
    ,                         !- Outside Boundary Condition Object
    autocalculate,            !- View Factor to Ground
    ,                         !- Frame and Divider Name
    1,                        !- Multiplier
    autocalculate,            !- Number of Vertices
    56.211540128609165,       !- Vertex 1 Xcoordinate
    13.625091299078194,       !- Vertex 1 Ycoordinate
    31.95,                    !- Vertex 1 Zcoordinate
    56.211540128609165,       !- Vertex 2 Xcoordinate
    13.625091299078194,       !- Vertex 2 Ycoordinate
    31.05,                    !- Vertex 2 Zcoordinate
    0.1508606,                !- Vertex 3 Xcoordinate
    14.59472485153121,        !- Vertex 3 Ycoordinate
    31.05,                    !- Vertex 3 Zcoordinate
    0.1508606,                !- Vertex 4 Xcoordinate
    14.59472485153121,        !- Vertex 4 Ycoordinate
    31.95;                    !- Vertex 4 Zcoordinate

FENESTRATIONSURFACE:DETAILED,
    Block Poly_87_Residential_3 Storey 10 Wall 0010 window,    !- Name
    Window,                   !- Surface Type
    HSCWZ_Residential_2005_Win,    !- Construction Name
    Block Poly_87_Residential_3 Storey 10 Wall 0010,    !- Building Surface Name
    ,                         !- Outside Boundary Condition Object
    autocalculate,            !- View Factor to Ground
    ,                         !- Frame and Divider Name
    1,                        !- Multiplier
    autocalculate,            !- Number of Vertices
    0.1227408,                !- Vertex 1 Xcoordinate
    14.590609954259591,       !- Vertex 1 Ycoordinate
    31.95,                    !- Vertex 1 Zcoordinate
    0.1227408,                !- Vertex 2 Xcoordinate
    14.590609954259591,       !- Vertex 2 Ycoordinate
    31.05,                    !- Vertex 2 Zcoordinate
    6.140108e-05,             !- Vertex 3 Xcoordinate
    5.39941165311332,         !- Vertex 3 Ycoordinate
    31.05,                    !- Vertex 3 Zcoordinate
    6.140108e-05,             !- Vertex 4 Xcoordinate
    5.39941165311332,         !- Vertex 4 Ycoordinate
    31.95;                    !- Vertex 4 Zcoordinate

FENESTRATIONSURFACE:DETAILED,
    Block Poly_87_Residential_3 Storey 10 Wall 0011 window,    !- Name
    Window,                   !- Surface Type
    HSCWZ_Residential_2005_Win,    !- Construction Name
    Block Poly_87_Residential_3 Storey 10 Wall 0011,    !- Building Surface Name
    ,                         !- Outside Boundary Condition Object
    autocalculate,            !- View Factor to Ground
    ,                         !- Frame and Divider Name
    1,                        !- Multiplier
    autocalculate,            !- Number of Vertices
    0.004185206,              !- Vertex 1 Xcoordinate
    5.3947555935424765,       !- Vertex 1 Ycoordinate
    31.95,                    !- Vertex 1 Zcoordinate
    0.004185206,              !- Vertex 2 Xcoordinate
    5.3947555935424765,       !- Vertex 2 Ycoordinate
    31.05,                    !- Vertex 2 Zcoordinate
    8.366226615788385,        !- Vertex 3 Xcoordinate
    5.283146872143727,        !- Vertex 3 Ycoordinate
    31.05,                    !- Vertex 3 Zcoordinate
    8.366226615788385,        !- Vertex 4 Xcoordinate
    5.283146872143727,        !- Vertex 4 Ycoordinate
    31.95;                    !- Vertex 4 Zcoordinate

FENESTRATIONSURFACE:DETAILED,
    Block Poly_87_Residential_3 Storey 10 Wall 0012 window,    !- Name
    Window,                   !- Surface Type
    HSCWZ_Residential_2005_Win,    !- Construction Name
    Block Poly_87_Residential_3 Storey 10 Wall 0012,    !- Building Surface Name
    ,                         !- Outside Boundary Condition Object
    autocalculate,            !- View Factor to Ground
    ,                         !- Frame and Divider Name
    1,                        !- Multiplier
    autocalculate,            !- Number of Vertices
    8.370380753192352,        !- Vertex 1 Xcoordinate
    5.2807632002669855,       !- Vertex 1 Ycoordinate
    31.95,                    !- Vertex 1 Zcoordinate
    8.370380753192352,        !- Vertex 2 Xcoordinate
    5.2807632002669855,       !- Vertex 2 Ycoordinate
    31.05,                    !- Vertex 2 Zcoordinate
    8.308305876439205,        !- Vertex 3 Xcoordinate
    0.6297955119360705,       !- Vertex 3 Ycoordinate
    31.05,                    !- Vertex 3 Zcoordinate
    8.308305876439205,        !- Vertex 4 Xcoordinate
    0.6297955119360705,       !- Vertex 4 Ycoordinate
    31.95;                    !- Vertex 4 Zcoordinate

FENESTRATIONSURFACE:DETAILED,
    Block Poly_87_Residential_3 Storey 11 Wall 0001 window,    !- Name
    Window,                   !- Surface Type
    HSCWZ_Residential_2005_Win,    !- Construction Name
    Block Poly_87_Residential_3 Storey 11 Wall 0001,    !- Building Surface Name
    ,                         !- Outside Boundary Condition Object
    autocalculate,            !- View Factor to Ground
    ,                         !- Frame and Divider Name
    1,                        !- Multiplier
    autocalculate,            !- Number of Vertices
    8.313601435898395,        !- Vertex 1 Xcoordinate
    0.6273966103503481,       !- Vertex 1 Ycoordinate
    34.95,                    !- Vertex 1 Zcoordinate
    8.313601435898395,        !- Vertex 2 Xcoordinate
    0.6273966103503481,       !- Vertex 2 Ycoordinate
    34.05,                    !- Vertex 2 Zcoordinate
    18.956204112115724,       !- Vertex 3 Xcoordinate
    0.4853589,                !- Vertex 3 Ycoordinate
    34.05,                    !- Vertex 3 Zcoordinate
    18.956204112115724,       !- Vertex 4 Xcoordinate
    0.4853589,                !- Vertex 4 Ycoordinate
    34.95;                    !- Vertex 4 Zcoordinate

FENESTRATIONSURFACE:DETAILED,
    Block Poly_87_Residential_3 Storey 11 Wall 0002 window,    !- Name
    Window,                   !- Surface Type
    HSCWZ_Residential_2005_Win,    !- Construction Name
    Block Poly_87_Residential_3 Storey 11 Wall 0002,    !- Building Surface Name
    ,                         !- Outside Boundary Condition Object
    autocalculate,            !- View Factor to Ground
    ,                         !- Frame and Divider Name
    1,                        !- Multiplier
    autocalculate,            !- Number of Vertices
    18.96160862570512,        !- Vertex 1 Xcoordinate
    0.4875596,                !- Vertex 1 Ycoordinate
    34.95,                    !- Vertex 1 Zcoordinate
    18.96160862570512,        !- Vertex 2 Xcoordinate
    0.4875596,                !- Vertex 2 Ycoordinate
    34.05,                    !- Vertex 2 Zcoordinate
    19.117224101104078,       !- Vertex 3 Xcoordinate
    5.026521704155952,        !- Vertex 3 Ycoordinate
    34.05,                    !- Vertex 3 Zcoordinate
    19.117224101104078,       !- Vertex 4 Xcoordinate
    5.026521704155952,        !- Vertex 4 Ycoordinate
    34.95;                    !- Vertex 4 Zcoordinate

FENESTRATIONSURFACE:DETAILED,
    Block Poly_87_Residential_3 Storey 11 Wall 0003 window,    !- Name
    Window,                   !- Surface Type
    HSCWZ_Residential_2005_Win,    !- Construction Name
    Block Poly_87_Residential_3 Storey 11 Wall 0003,    !- Building Surface Name
    ,                         !- Outside Boundary Condition Object
    autocalculate,            !- View Factor to Ground
    ,                         !- Frame and Divider Name
    1,                        !- Multiplier
    autocalculate,            !- Number of Vertices
    19.12595775314578,        !- Vertex 1 Xcoordinate
    5.028677947391057,        !- Vertex 1 Ycoordinate
    34.95,                    !- Vertex 1 Zcoordinate
    19.12595775314578,        !- Vertex 2 Xcoordinate
    5.028677947391057,        !- Vertex 2 Ycoordinate
    34.05,                    !- Vertex 2 Zcoordinate
    36.42017905706569,        !- Vertex 3 Xcoordinate
    4.797889820262558,        !- Vertex 3 Ycoordinate
    34.05,                    !- Vertex 3 Zcoordinate
    36.42017905706569,        !- Vertex 4 Xcoordinate
    4.797889820262558,        !- Vertex 4 Ycoordinate
    34.95;                    !- Vertex 4 Zcoordinate

FENESTRATIONSURFACE:DETAILED,
    Block Poly_87_Residential_3 Storey 11 Wall 0004 window,    !- Name
    Window,                   !- Surface Type
    HSCWZ_Residential_2005_Win,    !- Construction Name
    Block Poly_87_Residential_3 Storey 11 Wall 0004,    !- Building Surface Name
    ,                         !- Outside Boundary Condition Object
    autocalculate,            !- View Factor to Ground
    ,                         !- Frame and Divider Name
    1,                        !- Multiplier
    autocalculate,            !- Number of Vertices
    36.428803761221644,       !- Vertex 1 Xcoordinate
    4.795446499175858,        !- Vertex 1 Ycoordinate
    34.95,                    !- Vertex 1 Zcoordinate
    36.428803761221644,       !- Vertex 2 Xcoordinate
    4.795446499175858,        !- Vertex 2 Ycoordinate
    34.05,                    !- Vertex 2 Zcoordinate
    36.366741360898885,       !- Vertex 3 Xcoordinate
    0.1444791,                !- Vertex 3 Ycoordinate
    34.05,                    !- Vertex 3 Zcoordinate
    36.366741360898885,       !- Vertex 4 Xcoordinate
    0.1444791,                !- Vertex 4 Ycoordinate
    34.95;                    !- Vertex 4 Zcoordinate

FENESTRATIONSURFACE:DETAILED,
    Block Poly_87_Residential_3 Storey 11 Wall 0005 window,    !- Name
    Window,                   !- Surface Type
    HSCWZ_Residential_2005_Win,    !- Construction Name
    Block Poly_87_Residential_3 Storey 11 Wall 0005,    !- Building Surface Name
    ,                         !- Outside Boundary Condition Object
    autocalculate,            !- View Factor to Ground
    ,                         !- Frame and Divider Name
    1,                        !- Multiplier
    autocalculate,            !- Number of Vertices
    36.37203692633443,        !- Vertex 1 Xcoordinate
    0.1420802,                !- Vertex 1 Ycoordinate
    34.95,                    !- Vertex 1 Zcoordinate
    36.37203692633443,        !- Vertex 2 Xcoordinate
    0.1420802,                !- Vertex 2 Ycoordinate
    34.05,                    !- Vertex 2 Zcoordinate
    47.014639066879,          !- Vertex 3 Xcoordinate
    7.107564178295e-05,       !- Vertex 3 Ycoordinate
    34.05,                    !- Vertex 3 Zcoordinate
    47.014639066879,          !- Vertex 4 Xcoordinate
    7.107564178295e-05,       !- Vertex 4 Ycoordinate
    34.95;                    !- Vertex 4 Zcoordinate

FENESTRATIONSURFACE:DETAILED,
    Block Poly_87_Residential_3 Storey 11 Wall 0006 window,    !- Name
    Window,                   !- Surface Type
    HSCWZ_Residential_2005_Win,    !- Construction Name
    Block Poly_87_Residential_3 Storey 11 Wall 0006,    !- Building Surface Name
    ,                         !- Outside Boundary Condition Object
    autocalculate,            !- View Factor to Ground
    ,                         !- Frame and Divider Name
    1,                        !- Multiplier
    autocalculate,            !- Number of Vertices
    47.02004431362328,        !- Vertex 1 Xcoordinate
    0.002327177,              !- Vertex 1 Ycoordinate
    34.95,                    !- Vertex 1 Zcoordinate
    47.02004431362328,        !- Vertex 2 Xcoordinate
    0.002327177,              !- Vertex 2 Ycoordinate
    34.05,                    !- Vertex 2 Zcoordinate
    47.177125168153374,       !- Vertex 3 Xcoordinate
    4.652026582837338,        !- Vertex 3 Ycoordinate
    34.05,                    !- Vertex 3 Zcoordinate
    47.177125168153374,       !- Vertex 4 Xcoordinate
    4.652026582837338,        !- Vertex 4 Ycoordinate
    34.95;                    !- Vertex 4 Zcoordinate

FENESTRATIONSURFACE:DETAILED,
    Block Poly_87_Residential_3 Storey 11 Wall 0007 window,    !- Name
    Window,                   !- Surface Type
    HSCWZ_Residential_2005_Win,    !- Construction Name
    Block Poly_87_Residential_3 Storey 11 Wall 0007,    !- Building Surface Name
    ,                         !- Outside Boundary Condition Object
    autocalculate,            !- View Factor to Ground
    ,                         !- Frame and Divider Name
    1,                        !- Multiplier
    autocalculate,            !- Number of Vertices
    47.18172116732556,        !- Vertex 1 Xcoordinate
    4.654238052508561,        !- Vertex 1 Ycoordinate
    34.95,                    !- Vertex 1 Zcoordinate
    47.18172116732556,        !- Vertex 2 Xcoordinate
    4.654238052508561,        !- Vertex 2 Ycoordinate
    34.05,                    !- Vertex 2 Zcoordinate
    56.2074466588315,         !- Vertex 3 Xcoordinate
    4.42305504965526,         !- Vertex 3 Ycoordinate
    34.05,                    !- Vertex 3 Zcoordinate
    56.2074466588315,         !- Vertex 4 Xcoordinate
    4.42305504965526,         !- Vertex 4 Ycoordinate
    34.95;                    !- Vertex 4 Zcoordinate

FENESTRATIONSURFACE:DETAILED,
    Block Poly_87_Residential_3 Storey 11 Wall 0008 window,    !- Name
    Window,                   !- Surface Type
    HSCWZ_Residential_2005_Win,    !- Construction Name
    Block Poly_87_Residential_3 Storey 11 Wall 0008,    !- Building Surface Name
    ,                         !- Outside Boundary Condition Object
    autocalculate,            !- View Factor to Ground
    ,                         !- Frame and Divider Name
    1,                        !- Multiplier
    autocalculate,            !- Number of Vertices
    56.211977856201294,       !- Vertex 1 Xcoordinate
    4.427540175773902,        !- Vertex 1 Ycoordinate
    34.95,                    !- Vertex 1 Zcoordinate
    56.211977856201294,       !- Vertex 2 Xcoordinate
    4.427540175773902,        !- Vertex 2 Ycoordinate
    34.05,                    !- Vertex 2 Zcoordinate
    56.23958470955008,        !- Vertex 3 Xcoordinate
    13.620005163672612,       !- Vertex 3 Ycoordinate
    34.05,                    !- Vertex 3 Zcoordinate
    56.23958470955008,        !- Vertex 4 Xcoordinate
    13.620005163672612,       !- Vertex 4 Ycoordinate
    34.95;                    !- Vertex 4 Zcoordinate

FENESTRATIONSURFACE:DETAILED,
    Block Poly_87_Residential_3 Storey 11 Wall 0009 window,    !- Name
    Window,                   !- Surface Type
    HSCWZ_Residential_2005_Win,    !- Construction Name
    Block Poly_87_Residential_3 Storey 11 Wall 0009,    !- Building Surface Name
    ,                         !- Outside Boundary Condition Object
    autocalculate,            !- View Factor to Ground
    ,                         !- Frame and Divider Name
    1,                        !- Multiplier
    autocalculate,            !- Number of Vertices
    56.211540128609165,       !- Vertex 1 Xcoordinate
    13.625091299078194,       !- Vertex 1 Ycoordinate
    34.95,                    !- Vertex 1 Zcoordinate
    56.211540128609165,       !- Vertex 2 Xcoordinate
    13.625091299078194,       !- Vertex 2 Ycoordinate
    34.05,                    !- Vertex 2 Zcoordinate
    0.1508606,                !- Vertex 3 Xcoordinate
    14.59472485153121,        !- Vertex 3 Ycoordinate
    34.05,                    !- Vertex 3 Zcoordinate
    0.1508606,                !- Vertex 4 Xcoordinate
    14.59472485153121,        !- Vertex 4 Ycoordinate
    34.95;                    !- Vertex 4 Zcoordinate

FENESTRATIONSURFACE:DETAILED,
    Block Poly_87_Residential_3 Storey 11 Wall 0010 window,    !- Name
    Window,                   !- Surface Type
    HSCWZ_Residential_2005_Win,    !- Construction Name
    Block Poly_87_Residential_3 Storey 11 Wall 0010,    !- Building Surface Name
    ,                         !- Outside Boundary Condition Object
    autocalculate,            !- View Factor to Ground
    ,                         !- Frame and Divider Name
    1,                        !- Multiplier
    autocalculate,            !- Number of Vertices
    0.1227408,                !- Vertex 1 Xcoordinate
    14.590609954259591,       !- Vertex 1 Ycoordinate
    34.95,                    !- Vertex 1 Zcoordinate
    0.1227408,                !- Vertex 2 Xcoordinate
    14.590609954259591,       !- Vertex 2 Ycoordinate
    34.05,                    !- Vertex 2 Zcoordinate
    6.140108e-05,             !- Vertex 3 Xcoordinate
    5.39941165311332,         !- Vertex 3 Ycoordinate
    34.05,                    !- Vertex 3 Zcoordinate
    6.140108e-05,             !- Vertex 4 Xcoordinate
    5.39941165311332,         !- Vertex 4 Ycoordinate
    34.95;                    !- Vertex 4 Zcoordinate

FENESTRATIONSURFACE:DETAILED,
    Block Poly_87_Residential_3 Storey 11 Wall 0011 window,    !- Name
    Window,                   !- Surface Type
    HSCWZ_Residential_2005_Win,    !- Construction Name
    Block Poly_87_Residential_3 Storey 11 Wall 0011,    !- Building Surface Name
    ,                         !- Outside Boundary Condition Object
    autocalculate,            !- View Factor to Ground
    ,                         !- Frame and Divider Name
    1,                        !- Multiplier
    autocalculate,            !- Number of Vertices
    0.004185206,              !- Vertex 1 Xcoordinate
    5.3947555935424765,       !- Vertex 1 Ycoordinate
    34.95,                    !- Vertex 1 Zcoordinate
    0.004185206,              !- Vertex 2 Xcoordinate
    5.3947555935424765,       !- Vertex 2 Ycoordinate
    34.05,                    !- Vertex 2 Zcoordinate
    8.366226615788385,        !- Vertex 3 Xcoordinate
    5.283146872143727,        !- Vertex 3 Ycoordinate
    34.05,                    !- Vertex 3 Zcoordinate
    8.366226615788385,        !- Vertex 4 Xcoordinate
    5.283146872143727,        !- Vertex 4 Ycoordinate
    34.95;                    !- Vertex 4 Zcoordinate

FENESTRATIONSURFACE:DETAILED,
    Block Poly_87_Residential_3 Storey 11 Wall 0012 window,    !- Name
    Window,                   !- Surface Type
    HSCWZ_Residential_2005_Win,    !- Construction Name
    Block Poly_87_Residential_3 Storey 11 Wall 0012,    !- Building Surface Name
    ,                         !- Outside Boundary Condition Object
    autocalculate,            !- View Factor to Ground
    ,                         !- Frame and Divider Name
    1,                        !- Multiplier
    autocalculate,            !- Number of Vertices
    8.370380753192352,        !- Vertex 1 Xcoordinate
    5.2807632002669855,       !- Vertex 1 Ycoordinate
    34.95,                    !- Vertex 1 Zcoordinate
    8.370380753192352,        !- Vertex 2 Xcoordinate
    5.2807632002669855,       !- Vertex 2 Ycoordinate
    34.05,                    !- Vertex 2 Zcoordinate
    8.308305876439205,        !- Vertex 3 Xcoordinate
    0.6297955119360705,       !- Vertex 3 Ycoordinate
    34.05,                    !- Vertex 3 Zcoordinate
    8.308305876439205,        !- Vertex 4 Xcoordinate
    0.6297955119360705,       !- Vertex 4 Ycoordinate
    34.95;                    !- Vertex 4 Zcoordinate

FENESTRATIONSURFACE:DETAILED,
    Block Poly_87_Residential_3 Storey 12 Wall 0001 window,    !- Name
    Window,                   !- Surface Type
    HSCWZ_Residential_2005_Win,    !- Construction Name
    Block Poly_87_Residential_3 Storey 12 Wall 0001,    !- Building Surface Name
    ,                         !- Outside Boundary Condition Object
    autocalculate,            !- View Factor to Ground
    ,                         !- Frame and Divider Name
    1,                        !- Multiplier
    autocalculate,            !- Number of Vertices
    8.313601435898395,        !- Vertex 1 Xcoordinate
    0.6273966103503481,       !- Vertex 1 Ycoordinate
    37.95,                    !- Vertex 1 Zcoordinate
    8.313601435898395,        !- Vertex 2 Xcoordinate
    0.6273966103503481,       !- Vertex 2 Ycoordinate
    37.05,                    !- Vertex 2 Zcoordinate
    18.956204112115724,       !- Vertex 3 Xcoordinate
    0.4853589,                !- Vertex 3 Ycoordinate
    37.05,                    !- Vertex 3 Zcoordinate
    18.956204112115724,       !- Vertex 4 Xcoordinate
    0.4853589,                !- Vertex 4 Ycoordinate
    37.95;                    !- Vertex 4 Zcoordinate

FENESTRATIONSURFACE:DETAILED,
    Block Poly_87_Residential_3 Storey 12 Wall 0002 window,    !- Name
    Window,                   !- Surface Type
    HSCWZ_Residential_2005_Win,    !- Construction Name
    Block Poly_87_Residential_3 Storey 12 Wall 0002,    !- Building Surface Name
    ,                         !- Outside Boundary Condition Object
    autocalculate,            !- View Factor to Ground
    ,                         !- Frame and Divider Name
    1,                        !- Multiplier
    autocalculate,            !- Number of Vertices
    18.96160862570512,        !- Vertex 1 Xcoordinate
    0.4875596,                !- Vertex 1 Ycoordinate
    37.95,                    !- Vertex 1 Zcoordinate
    18.96160862570512,        !- Vertex 2 Xcoordinate
    0.4875596,                !- Vertex 2 Ycoordinate
    37.05,                    !- Vertex 2 Zcoordinate
    19.117224101104078,       !- Vertex 3 Xcoordinate
    5.026521704155952,        !- Vertex 3 Ycoordinate
    37.05,                    !- Vertex 3 Zcoordinate
    19.117224101104078,       !- Vertex 4 Xcoordinate
    5.026521704155952,        !- Vertex 4 Ycoordinate
    37.95;                    !- Vertex 4 Zcoordinate

FENESTRATIONSURFACE:DETAILED,
    Block Poly_87_Residential_3 Storey 12 Wall 0003 window,    !- Name
    Window,                   !- Surface Type
    HSCWZ_Residential_2005_Win,    !- Construction Name
    Block Poly_87_Residential_3 Storey 12 Wall 0003,    !- Building Surface Name
    ,                         !- Outside Boundary Condition Object
    autocalculate,            !- View Factor to Ground
    ,                         !- Frame and Divider Name
    1,                        !- Multiplier
    autocalculate,            !- Number of Vertices
    19.12595775314578,        !- Vertex 1 Xcoordinate
    5.028677947391057,        !- Vertex 1 Ycoordinate
    37.95,                    !- Vertex 1 Zcoordinate
    19.12595775314578,        !- Vertex 2 Xcoordinate
    5.028677947391057,        !- Vertex 2 Ycoordinate
    37.05,                    !- Vertex 2 Zcoordinate
    36.42017905706569,        !- Vertex 3 Xcoordinate
    4.797889820262558,        !- Vertex 3 Ycoordinate
    37.05,                    !- Vertex 3 Zcoordinate
    36.42017905706569,        !- Vertex 4 Xcoordinate
    4.797889820262558,        !- Vertex 4 Ycoordinate
    37.95;                    !- Vertex 4 Zcoordinate

FENESTRATIONSURFACE:DETAILED,
    Block Poly_87_Residential_3 Storey 12 Wall 0004 window,    !- Name
    Window,                   !- Surface Type
    HSCWZ_Residential_2005_Win,    !- Construction Name
    Block Poly_87_Residential_3 Storey 12 Wall 0004,    !- Building Surface Name
    ,                         !- Outside Boundary Condition Object
    autocalculate,            !- View Factor to Ground
    ,                         !- Frame and Divider Name
    1,                        !- Multiplier
    autocalculate,            !- Number of Vertices
    36.428803761221644,       !- Vertex 1 Xcoordinate
    4.795446499175858,        !- Vertex 1 Ycoordinate
    37.95,                    !- Vertex 1 Zcoordinate
    36.428803761221644,       !- Vertex 2 Xcoordinate
    4.795446499175858,        !- Vertex 2 Ycoordinate
    37.05,                    !- Vertex 2 Zcoordinate
    36.366741360898885,       !- Vertex 3 Xcoordinate
    0.1444791,                !- Vertex 3 Ycoordinate
    37.05,                    !- Vertex 3 Zcoordinate
    36.366741360898885,       !- Vertex 4 Xcoordinate
    0.1444791,                !- Vertex 4 Ycoordinate
    37.95;                    !- Vertex 4 Zcoordinate

FENESTRATIONSURFACE:DETAILED,
    Block Poly_87_Residential_3 Storey 12 Wall 0005 window,    !- Name
    Window,                   !- Surface Type
    HSCWZ_Residential_2005_Win,    !- Construction Name
    Block Poly_87_Residential_3 Storey 12 Wall 0005,    !- Building Surface Name
    ,                         !- Outside Boundary Condition Object
    autocalculate,            !- View Factor to Ground
    ,                         !- Frame and Divider Name
    1,                        !- Multiplier
    autocalculate,            !- Number of Vertices
    36.37203692633443,        !- Vertex 1 Xcoordinate
    0.1420802,                !- Vertex 1 Ycoordinate
    37.95,                    !- Vertex 1 Zcoordinate
    36.37203692633443,        !- Vertex 2 Xcoordinate
    0.1420802,                !- Vertex 2 Ycoordinate
    37.05,                    !- Vertex 2 Zcoordinate
    47.014639066879,          !- Vertex 3 Xcoordinate
    7.107564178295e-05,       !- Vertex 3 Ycoordinate
    37.05,                    !- Vertex 3 Zcoordinate
    47.014639066879,          !- Vertex 4 Xcoordinate
    7.107564178295e-05,       !- Vertex 4 Ycoordinate
    37.95;                    !- Vertex 4 Zcoordinate

FENESTRATIONSURFACE:DETAILED,
    Block Poly_87_Residential_3 Storey 12 Wall 0006 window,    !- Name
    Window,                   !- Surface Type
    HSCWZ_Residential_2005_Win,    !- Construction Name
    Block Poly_87_Residential_3 Storey 12 Wall 0006,    !- Building Surface Name
    ,                         !- Outside Boundary Condition Object
    autocalculate,            !- View Factor to Ground
    ,                         !- Frame and Divider Name
    1,                        !- Multiplier
    autocalculate,            !- Number of Vertices
    47.02004431362328,        !- Vertex 1 Xcoordinate
    0.002327177,              !- Vertex 1 Ycoordinate
    37.95,                    !- Vertex 1 Zcoordinate
    47.02004431362328,        !- Vertex 2 Xcoordinate
    0.002327177,              !- Vertex 2 Ycoordinate
    37.05,                    !- Vertex 2 Zcoordinate
    47.177125168153374,       !- Vertex 3 Xcoordinate
    4.652026582837338,        !- Vertex 3 Ycoordinate
    37.05,                    !- Vertex 3 Zcoordinate
    47.177125168153374,       !- Vertex 4 Xcoordinate
    4.652026582837338,        !- Vertex 4 Ycoordinate
    37.95;                    !- Vertex 4 Zcoordinate

FENESTRATIONSURFACE:DETAILED,
    Block Poly_87_Residential_3 Storey 12 Wall 0007 window,    !- Name
    Window,                   !- Surface Type
    HSCWZ_Residential_2005_Win,    !- Construction Name
    Block Poly_87_Residential_3 Storey 12 Wall 0007,    !- Building Surface Name
    ,                         !- Outside Boundary Condition Object
    autocalculate,            !- View Factor to Ground
    ,                         !- Frame and Divider Name
    1,                        !- Multiplier
    autocalculate,            !- Number of Vertices
    47.18172116732556,        !- Vertex 1 Xcoordinate
    4.654238052508561,        !- Vertex 1 Ycoordinate
    37.95,                    !- Vertex 1 Zcoordinate
    47.18172116732556,        !- Vertex 2 Xcoordinate
    4.654238052508561,        !- Vertex 2 Ycoordinate
    37.05,                    !- Vertex 2 Zcoordinate
    56.2074466588315,         !- Vertex 3 Xcoordinate
    4.42305504965526,         !- Vertex 3 Ycoordinate
    37.05,                    !- Vertex 3 Zcoordinate
    56.2074466588315,         !- Vertex 4 Xcoordinate
    4.42305504965526,         !- Vertex 4 Ycoordinate
    37.95;                    !- Vertex 4 Zcoordinate

FENESTRATIONSURFACE:DETAILED,
    Block Poly_87_Residential_3 Storey 12 Wall 0008 window,    !- Name
    Window,                   !- Surface Type
    HSCWZ_Residential_2005_Win,    !- Construction Name
    Block Poly_87_Residential_3 Storey 12 Wall 0008,    !- Building Surface Name
    ,                         !- Outside Boundary Condition Object
    autocalculate,            !- View Factor to Ground
    ,                         !- Frame and Divider Name
    1,                        !- Multiplier
    autocalculate,            !- Number of Vertices
    56.211977856201294,       !- Vertex 1 Xcoordinate
    4.427540175773902,        !- Vertex 1 Ycoordinate
    37.95,                    !- Vertex 1 Zcoordinate
    56.211977856201294,       !- Vertex 2 Xcoordinate
    4.427540175773902,        !- Vertex 2 Ycoordinate
    37.05,                    !- Vertex 2 Zcoordinate
    56.23958470955008,        !- Vertex 3 Xcoordinate
    13.620005163672612,       !- Vertex 3 Ycoordinate
    37.05,                    !- Vertex 3 Zcoordinate
    56.23958470955008,        !- Vertex 4 Xcoordinate
    13.620005163672612,       !- Vertex 4 Ycoordinate
    37.95;                    !- Vertex 4 Zcoordinate

FENESTRATIONSURFACE:DETAILED,
    Block Poly_87_Residential_3 Storey 12 Wall 0009 window,    !- Name
    Window,                   !- Surface Type
    HSCWZ_Residential_2005_Win,    !- Construction Name
    Block Poly_87_Residential_3 Storey 12 Wall 0009,    !- Building Surface Name
    ,                         !- Outside Boundary Condition Object
    autocalculate,            !- View Factor to Ground
    ,                         !- Frame and Divider Name
    1,                        !- Multiplier
    autocalculate,            !- Number of Vertices
    56.211540128609165,       !- Vertex 1 Xcoordinate
    13.625091299078194,       !- Vertex 1 Ycoordinate
    37.95,                    !- Vertex 1 Zcoordinate
    56.211540128609165,       !- Vertex 2 Xcoordinate
    13.625091299078194,       !- Vertex 2 Ycoordinate
    37.05,                    !- Vertex 2 Zcoordinate
    0.1508606,                !- Vertex 3 Xcoordinate
    14.59472485153121,        !- Vertex 3 Ycoordinate
    37.05,                    !- Vertex 3 Zcoordinate
    0.1508606,                !- Vertex 4 Xcoordinate
    14.59472485153121,        !- Vertex 4 Ycoordinate
    37.95;                    !- Vertex 4 Zcoordinate

FENESTRATIONSURFACE:DETAILED,
    Block Poly_87_Residential_3 Storey 12 Wall 0010 window,    !- Name
    Window,                   !- Surface Type
    HSCWZ_Residential_2005_Win,    !- Construction Name
    Block Poly_87_Residential_3 Storey 12 Wall 0010,    !- Building Surface Name
    ,                         !- Outside Boundary Condition Object
    autocalculate,            !- View Factor to Ground
    ,                         !- Frame and Divider Name
    1,                        !- Multiplier
    autocalculate,            !- Number of Vertices
    0.1227408,                !- Vertex 1 Xcoordinate
    14.590609954259591,       !- Vertex 1 Ycoordinate
    37.95,                    !- Vertex 1 Zcoordinate
    0.1227408,                !- Vertex 2 Xcoordinate
    14.590609954259591,       !- Vertex 2 Ycoordinate
    37.05,                    !- Vertex 2 Zcoordinate
    6.140108e-05,             !- Vertex 3 Xcoordinate
    5.39941165311332,         !- Vertex 3 Ycoordinate
    37.05,                    !- Vertex 3 Zcoordinate
    6.140108e-05,             !- Vertex 4 Xcoordinate
    5.39941165311332,         !- Vertex 4 Ycoordinate
    37.95;                    !- Vertex 4 Zcoordinate

FENESTRATIONSURFACE:DETAILED,
    Block Poly_87_Residential_3 Storey 12 Wall 0011 window,    !- Name
    Window,                   !- Surface Type
    HSCWZ_Residential_2005_Win,    !- Construction Name
    Block Poly_87_Residential_3 Storey 12 Wall 0011,    !- Building Surface Name
    ,                         !- Outside Boundary Condition Object
    autocalculate,            !- View Factor to Ground
    ,                         !- Frame and Divider Name
    1,                        !- Multiplier
    autocalculate,            !- Number of Vertices
    0.004185206,              !- Vertex 1 Xcoordinate
    5.3947555935424765,       !- Vertex 1 Ycoordinate
    37.95,                    !- Vertex 1 Zcoordinate
    0.004185206,              !- Vertex 2 Xcoordinate
    5.3947555935424765,       !- Vertex 2 Ycoordinate
    37.05,                    !- Vertex 2 Zcoordinate
    8.366226615788385,        !- Vertex 3 Xcoordinate
    5.283146872143727,        !- Vertex 3 Ycoordinate
    37.05,                    !- Vertex 3 Zcoordinate
    8.366226615788385,        !- Vertex 4 Xcoordinate
    5.283146872143727,        !- Vertex 4 Ycoordinate
    37.95;                    !- Vertex 4 Zcoordinate

FENESTRATIONSURFACE:DETAILED,
    Block Poly_87_Residential_3 Storey 12 Wall 0012 window,    !- Name
    Window,                   !- Surface Type
    HSCWZ_Residential_2005_Win,    !- Construction Name
    Block Poly_87_Residential_3 Storey 12 Wall 0012,    !- Building Surface Name
    ,                         !- Outside Boundary Condition Object
    autocalculate,            !- View Factor to Ground
    ,                         !- Frame and Divider Name
    1,                        !- Multiplier
    autocalculate,            !- Number of Vertices
    8.370380753192352,        !- Vertex 1 Xcoordinate
    5.2807632002669855,       !- Vertex 1 Ycoordinate
    37.95,                    !- Vertex 1 Zcoordinate
    8.370380753192352,        !- Vertex 2 Xcoordinate
    5.2807632002669855,       !- Vertex 2 Ycoordinate
    37.05,                    !- Vertex 2 Zcoordinate
    8.308305876439205,        !- Vertex 3 Xcoordinate
    0.6297955119360705,       !- Vertex 3 Ycoordinate
    37.05,                    !- Vertex 3 Zcoordinate
    8.308305876439205,        !- Vertex 4 Xcoordinate
    0.6297955119360705,       !- Vertex 4 Ycoordinate
    37.95;                    !- Vertex 4 Zcoordinate

FENESTRATIONSURFACE:DETAILED,
    Block Poly_87_Residential_3 Storey 13 Wall 0001 window,    !- Name
    Window,                   !- Surface Type
    HSCWZ_Residential_2005_Win,    !- Construction Name
    Block Poly_87_Residential_3 Storey 13 Wall 0001,    !- Building Surface Name
    ,                         !- Outside Boundary Condition Object
    autocalculate,            !- View Factor to Ground
    ,                         !- Frame and Divider Name
    1,                        !- Multiplier
    autocalculate,            !- Number of Vertices
    8.313601435898395,        !- Vertex 1 Xcoordinate
    0.6273966103503481,       !- Vertex 1 Ycoordinate
    40.95,                    !- Vertex 1 Zcoordinate
    8.313601435898395,        !- Vertex 2 Xcoordinate
    0.6273966103503481,       !- Vertex 2 Ycoordinate
    40.05,                    !- Vertex 2 Zcoordinate
    18.956204112115724,       !- Vertex 3 Xcoordinate
    0.4853589,                !- Vertex 3 Ycoordinate
    40.05,                    !- Vertex 3 Zcoordinate
    18.956204112115724,       !- Vertex 4 Xcoordinate
    0.4853589,                !- Vertex 4 Ycoordinate
    40.95;                    !- Vertex 4 Zcoordinate

FENESTRATIONSURFACE:DETAILED,
    Block Poly_87_Residential_3 Storey 13 Wall 0002 window,    !- Name
    Window,                   !- Surface Type
    HSCWZ_Residential_2005_Win,    !- Construction Name
    Block Poly_87_Residential_3 Storey 13 Wall 0002,    !- Building Surface Name
    ,                         !- Outside Boundary Condition Object
    autocalculate,            !- View Factor to Ground
    ,                         !- Frame and Divider Name
    1,                        !- Multiplier
    autocalculate,            !- Number of Vertices
    18.96160862570512,        !- Vertex 1 Xcoordinate
    0.4875596,                !- Vertex 1 Ycoordinate
    40.95,                    !- Vertex 1 Zcoordinate
    18.96160862570512,        !- Vertex 2 Xcoordinate
    0.4875596,                !- Vertex 2 Ycoordinate
    40.05,                    !- Vertex 2 Zcoordinate
    19.117224101104078,       !- Vertex 3 Xcoordinate
    5.026521704155952,        !- Vertex 3 Ycoordinate
    40.05,                    !- Vertex 3 Zcoordinate
    19.117224101104078,       !- Vertex 4 Xcoordinate
    5.026521704155952,        !- Vertex 4 Ycoordinate
    40.95;                    !- Vertex 4 Zcoordinate

FENESTRATIONSURFACE:DETAILED,
    Block Poly_87_Residential_3 Storey 13 Wall 0003 window,    !- Name
    Window,                   !- Surface Type
    HSCWZ_Residential_2005_Win,    !- Construction Name
    Block Poly_87_Residential_3 Storey 13 Wall 0003,    !- Building Surface Name
    ,                         !- Outside Boundary Condition Object
    autocalculate,            !- View Factor to Ground
    ,                         !- Frame and Divider Name
    1,                        !- Multiplier
    autocalculate,            !- Number of Vertices
    19.12595775314578,        !- Vertex 1 Xcoordinate
    5.028677947391057,        !- Vertex 1 Ycoordinate
    40.95,                    !- Vertex 1 Zcoordinate
    19.12595775314578,        !- Vertex 2 Xcoordinate
    5.028677947391057,        !- Vertex 2 Ycoordinate
    40.05,                    !- Vertex 2 Zcoordinate
    36.42017905706569,        !- Vertex 3 Xcoordinate
    4.797889820262558,        !- Vertex 3 Ycoordinate
    40.05,                    !- Vertex 3 Zcoordinate
    36.42017905706569,        !- Vertex 4 Xcoordinate
    4.797889820262558,        !- Vertex 4 Ycoordinate
    40.95;                    !- Vertex 4 Zcoordinate

FENESTRATIONSURFACE:DETAILED,
    Block Poly_87_Residential_3 Storey 13 Wall 0004 window,    !- Name
    Window,                   !- Surface Type
    HSCWZ_Residential_2005_Win,    !- Construction Name
    Block Poly_87_Residential_3 Storey 13 Wall 0004,    !- Building Surface Name
    ,                         !- Outside Boundary Condition Object
    autocalculate,            !- View Factor to Ground
    ,                         !- Frame and Divider Name
    1,                        !- Multiplier
    autocalculate,            !- Number of Vertices
    36.428803761221644,       !- Vertex 1 Xcoordinate
    4.795446499175858,        !- Vertex 1 Ycoordinate
    40.95,                    !- Vertex 1 Zcoordinate
    36.428803761221644,       !- Vertex 2 Xcoordinate
    4.795446499175858,        !- Vertex 2 Ycoordinate
    40.05,                    !- Vertex 2 Zcoordinate
    36.366741360898885,       !- Vertex 3 Xcoordinate
    0.1444791,                !- Vertex 3 Ycoordinate
    40.05,                    !- Vertex 3 Zcoordinate
    36.366741360898885,       !- Vertex 4 Xcoordinate
    0.1444791,                !- Vertex 4 Ycoordinate
    40.95;                    !- Vertex 4 Zcoordinate

FENESTRATIONSURFACE:DETAILED,
    Block Poly_87_Residential_3 Storey 13 Wall 0005 window,    !- Name
    Window,                   !- Surface Type
    HSCWZ_Residential_2005_Win,    !- Construction Name
    Block Poly_87_Residential_3 Storey 13 Wall 0005,    !- Building Surface Name
    ,                         !- Outside Boundary Condition Object
    autocalculate,            !- View Factor to Ground
    ,                         !- Frame and Divider Name
    1,                        !- Multiplier
    autocalculate,            !- Number of Vertices
    36.37203692633443,        !- Vertex 1 Xcoordinate
    0.1420802,                !- Vertex 1 Ycoordinate
    40.95,                    !- Vertex 1 Zcoordinate
    36.37203692633443,        !- Vertex 2 Xcoordinate
    0.1420802,                !- Vertex 2 Ycoordinate
    40.05,                    !- Vertex 2 Zcoordinate
    47.014639066879,          !- Vertex 3 Xcoordinate
    7.107564178295e-05,       !- Vertex 3 Ycoordinate
    40.05,                    !- Vertex 3 Zcoordinate
    47.014639066879,          !- Vertex 4 Xcoordinate
    7.107564178295e-05,       !- Vertex 4 Ycoordinate
    40.95;                    !- Vertex 4 Zcoordinate

FENESTRATIONSURFACE:DETAILED,
    Block Poly_87_Residential_3 Storey 13 Wall 0006 window,    !- Name
    Window,                   !- Surface Type
    HSCWZ_Residential_2005_Win,    !- Construction Name
    Block Poly_87_Residential_3 Storey 13 Wall 0006,    !- Building Surface Name
    ,                         !- Outside Boundary Condition Object
    autocalculate,            !- View Factor to Ground
    ,                         !- Frame and Divider Name
    1,                        !- Multiplier
    autocalculate,            !- Number of Vertices
    47.02004431362328,        !- Vertex 1 Xcoordinate
    0.002327177,              !- Vertex 1 Ycoordinate
    40.95,                    !- Vertex 1 Zcoordinate
    47.02004431362328,        !- Vertex 2 Xcoordinate
    0.002327177,              !- Vertex 2 Ycoordinate
    40.05,                    !- Vertex 2 Zcoordinate
    47.177125168153374,       !- Vertex 3 Xcoordinate
    4.652026582837338,        !- Vertex 3 Ycoordinate
    40.05,                    !- Vertex 3 Zcoordinate
    47.177125168153374,       !- Vertex 4 Xcoordinate
    4.652026582837338,        !- Vertex 4 Ycoordinate
    40.95;                    !- Vertex 4 Zcoordinate

FENESTRATIONSURFACE:DETAILED,
    Block Poly_87_Residential_3 Storey 13 Wall 0007 window,    !- Name
    Window,                   !- Surface Type
    HSCWZ_Residential_2005_Win,    !- Construction Name
    Block Poly_87_Residential_3 Storey 13 Wall 0007,    !- Building Surface Name
    ,                         !- Outside Boundary Condition Object
    autocalculate,            !- View Factor to Ground
    ,                         !- Frame and Divider Name
    1,                        !- Multiplier
    autocalculate,            !- Number of Vertices
    47.18172116732556,        !- Vertex 1 Xcoordinate
    4.654238052508561,        !- Vertex 1 Ycoordinate
    40.95,                    !- Vertex 1 Zcoordinate
    47.18172116732556,        !- Vertex 2 Xcoordinate
    4.654238052508561,        !- Vertex 2 Ycoordinate
    40.05,                    !- Vertex 2 Zcoordinate
    56.2074466588315,         !- Vertex 3 Xcoordinate
    4.42305504965526,         !- Vertex 3 Ycoordinate
    40.05,                    !- Vertex 3 Zcoordinate
    56.2074466588315,         !- Vertex 4 Xcoordinate
    4.42305504965526,         !- Vertex 4 Ycoordinate
    40.95;                    !- Vertex 4 Zcoordinate

FENESTRATIONSURFACE:DETAILED,
    Block Poly_87_Residential_3 Storey 13 Wall 0008 window,    !- Name
    Window,                   !- Surface Type
    HSCWZ_Residential_2005_Win,    !- Construction Name
    Block Poly_87_Residential_3 Storey 13 Wall 0008,    !- Building Surface Name
    ,                         !- Outside Boundary Condition Object
    autocalculate,            !- View Factor to Ground
    ,                         !- Frame and Divider Name
    1,                        !- Multiplier
    autocalculate,            !- Number of Vertices
    56.211977856201294,       !- Vertex 1 Xcoordinate
    4.427540175773902,        !- Vertex 1 Ycoordinate
    40.95,                    !- Vertex 1 Zcoordinate
    56.211977856201294,       !- Vertex 2 Xcoordinate
    4.427540175773902,        !- Vertex 2 Ycoordinate
    40.05,                    !- Vertex 2 Zcoordinate
    56.23958470955008,        !- Vertex 3 Xcoordinate
    13.620005163672612,       !- Vertex 3 Ycoordinate
    40.05,                    !- Vertex 3 Zcoordinate
    56.23958470955008,        !- Vertex 4 Xcoordinate
    13.620005163672612,       !- Vertex 4 Ycoordinate
    40.95;                    !- Vertex 4 Zcoordinate

FENESTRATIONSURFACE:DETAILED,
    Block Poly_87_Residential_3 Storey 13 Wall 0009 window,    !- Name
    Window,                   !- Surface Type
    HSCWZ_Residential_2005_Win,    !- Construction Name
    Block Poly_87_Residential_3 Storey 13 Wall 0009,    !- Building Surface Name
    ,                         !- Outside Boundary Condition Object
    autocalculate,            !- View Factor to Ground
    ,                         !- Frame and Divider Name
    1,                        !- Multiplier
    autocalculate,            !- Number of Vertices
    56.211540128609165,       !- Vertex 1 Xcoordinate
    13.625091299078194,       !- Vertex 1 Ycoordinate
    40.95,                    !- Vertex 1 Zcoordinate
    56.211540128609165,       !- Vertex 2 Xcoordinate
    13.625091299078194,       !- Vertex 2 Ycoordinate
    40.05,                    !- Vertex 2 Zcoordinate
    0.1508606,                !- Vertex 3 Xcoordinate
    14.59472485153121,        !- Vertex 3 Ycoordinate
    40.05,                    !- Vertex 3 Zcoordinate
    0.1508606,                !- Vertex 4 Xcoordinate
    14.59472485153121,        !- Vertex 4 Ycoordinate
    40.95;                    !- Vertex 4 Zcoordinate

FENESTRATIONSURFACE:DETAILED,
    Block Poly_87_Residential_3 Storey 13 Wall 0010 window,    !- Name
    Window,                   !- Surface Type
    HSCWZ_Residential_2005_Win,    !- Construction Name
    Block Poly_87_Residential_3 Storey 13 Wall 0010,    !- Building Surface Name
    ,                         !- Outside Boundary Condition Object
    autocalculate,            !- View Factor to Ground
    ,                         !- Frame and Divider Name
    1,                        !- Multiplier
    autocalculate,            !- Number of Vertices
    0.1227408,                !- Vertex 1 Xcoordinate
    14.590609954259591,       !- Vertex 1 Ycoordinate
    40.95,                    !- Vertex 1 Zcoordinate
    0.1227408,                !- Vertex 2 Xcoordinate
    14.590609954259591,       !- Vertex 2 Ycoordinate
    40.05,                    !- Vertex 2 Zcoordinate
    6.140108e-05,             !- Vertex 3 Xcoordinate
    5.39941165311332,         !- Vertex 3 Ycoordinate
    40.05,                    !- Vertex 3 Zcoordinate
    6.140108e-05,             !- Vertex 4 Xcoordinate
    5.39941165311332,         !- Vertex 4 Ycoordinate
    40.95;                    !- Vertex 4 Zcoordinate

FENESTRATIONSURFACE:DETAILED,
    Block Poly_87_Residential_3 Storey 13 Wall 0011 window,    !- Name
    Window,                   !- Surface Type
    HSCWZ_Residential_2005_Win,    !- Construction Name
    Block Poly_87_Residential_3 Storey 13 Wall 0011,    !- Building Surface Name
    ,                         !- Outside Boundary Condition Object
    autocalculate,            !- View Factor to Ground
    ,                         !- Frame and Divider Name
    1,                        !- Multiplier
    autocalculate,            !- Number of Vertices
    0.004185206,              !- Vertex 1 Xcoordinate
    5.3947555935424765,       !- Vertex 1 Ycoordinate
    40.95,                    !- Vertex 1 Zcoordinate
    0.004185206,              !- Vertex 2 Xcoordinate
    5.3947555935424765,       !- Vertex 2 Ycoordinate
    40.05,                    !- Vertex 2 Zcoordinate
    8.366226615788385,        !- Vertex 3 Xcoordinate
    5.283146872143727,        !- Vertex 3 Ycoordinate
    40.05,                    !- Vertex 3 Zcoordinate
    8.366226615788385,        !- Vertex 4 Xcoordinate
    5.283146872143727,        !- Vertex 4 Ycoordinate
    40.95;                    !- Vertex 4 Zcoordinate

FENESTRATIONSURFACE:DETAILED,
    Block Poly_87_Residential_3 Storey 13 Wall 0012 window,    !- Name
    Window,                   !- Surface Type
    HSCWZ_Residential_2005_Win,    !- Construction Name
    Block Poly_87_Residential_3 Storey 13 Wall 0012,    !- Building Surface Name
    ,                         !- Outside Boundary Condition Object
    autocalculate,            !- View Factor to Ground
    ,                         !- Frame and Divider Name
    1,                        !- Multiplier
    autocalculate,            !- Number of Vertices
    8.370380753192352,        !- Vertex 1 Xcoordinate
    5.2807632002669855,       !- Vertex 1 Ycoordinate
    40.95,                    !- Vertex 1 Zcoordinate
    8.370380753192352,        !- Vertex 2 Xcoordinate
    5.2807632002669855,       !- Vertex 2 Ycoordinate
    40.05,                    !- Vertex 2 Zcoordinate
    8.308305876439205,        !- Vertex 3 Xcoordinate
    0.6297955119360705,       !- Vertex 3 Ycoordinate
    40.05,                    !- Vertex 3 Zcoordinate
    8.308305876439205,        !- Vertex 4 Xcoordinate
    0.6297955119360705,       !- Vertex 4 Ycoordinate
    40.95;                    !- Vertex 4 Zcoordinate

FENESTRATIONSURFACE:DETAILED,
    Block Poly_87_Residential_3 Storey 14 Wall 0001 window,    !- Name
    Window,                   !- Surface Type
    HSCWZ_Residential_2005_Win,    !- Construction Name
    Block Poly_87_Residential_3 Storey 14 Wall 0001,    !- Building Surface Name
    ,                         !- Outside Boundary Condition Object
    autocalculate,            !- View Factor to Ground
    ,                         !- Frame and Divider Name
    1,                        !- Multiplier
    autocalculate,            !- Number of Vertices
    8.313601435898395,        !- Vertex 1 Xcoordinate
    0.6273966103503481,       !- Vertex 1 Ycoordinate
    43.95,                    !- Vertex 1 Zcoordinate
    8.313601435898395,        !- Vertex 2 Xcoordinate
    0.6273966103503481,       !- Vertex 2 Ycoordinate
    43.05,                    !- Vertex 2 Zcoordinate
    18.956204112115724,       !- Vertex 3 Xcoordinate
    0.4853589,                !- Vertex 3 Ycoordinate
    43.05,                    !- Vertex 3 Zcoordinate
    18.956204112115724,       !- Vertex 4 Xcoordinate
    0.4853589,                !- Vertex 4 Ycoordinate
    43.95;                    !- Vertex 4 Zcoordinate

FENESTRATIONSURFACE:DETAILED,
    Block Poly_87_Residential_3 Storey 14 Wall 0002 window,    !- Name
    Window,                   !- Surface Type
    HSCWZ_Residential_2005_Win,    !- Construction Name
    Block Poly_87_Residential_3 Storey 14 Wall 0002,    !- Building Surface Name
    ,                         !- Outside Boundary Condition Object
    autocalculate,            !- View Factor to Ground
    ,                         !- Frame and Divider Name
    1,                        !- Multiplier
    autocalculate,            !- Number of Vertices
    18.96160862570512,        !- Vertex 1 Xcoordinate
    0.4875596,                !- Vertex 1 Ycoordinate
    43.95,                    !- Vertex 1 Zcoordinate
    18.96160862570512,        !- Vertex 2 Xcoordinate
    0.4875596,                !- Vertex 2 Ycoordinate
    43.05,                    !- Vertex 2 Zcoordinate
    19.117224101104078,       !- Vertex 3 Xcoordinate
    5.026521704155952,        !- Vertex 3 Ycoordinate
    43.05,                    !- Vertex 3 Zcoordinate
    19.117224101104078,       !- Vertex 4 Xcoordinate
    5.026521704155952,        !- Vertex 4 Ycoordinate
    43.95;                    !- Vertex 4 Zcoordinate

FENESTRATIONSURFACE:DETAILED,
    Block Poly_87_Residential_3 Storey 14 Wall 0003 window,    !- Name
    Window,                   !- Surface Type
    HSCWZ_Residential_2005_Win,    !- Construction Name
    Block Poly_87_Residential_3 Storey 14 Wall 0003,    !- Building Surface Name
    ,                         !- Outside Boundary Condition Object
    autocalculate,            !- View Factor to Ground
    ,                         !- Frame and Divider Name
    1,                        !- Multiplier
    autocalculate,            !- Number of Vertices
    19.12595775314578,        !- Vertex 1 Xcoordinate
    5.028677947391057,        !- Vertex 1 Ycoordinate
    43.95,                    !- Vertex 1 Zcoordinate
    19.12595775314578,        !- Vertex 2 Xcoordinate
    5.028677947391057,        !- Vertex 2 Ycoordinate
    43.05,                    !- Vertex 2 Zcoordinate
    36.42017905706569,        !- Vertex 3 Xcoordinate
    4.797889820262558,        !- Vertex 3 Ycoordinate
    43.05,                    !- Vertex 3 Zcoordinate
    36.42017905706569,        !- Vertex 4 Xcoordinate
    4.797889820262558,        !- Vertex 4 Ycoordinate
    43.95;                    !- Vertex 4 Zcoordinate

FENESTRATIONSURFACE:DETAILED,
    Block Poly_87_Residential_3 Storey 14 Wall 0004 window,    !- Name
    Window,                   !- Surface Type
    HSCWZ_Residential_2005_Win,    !- Construction Name
    Block Poly_87_Residential_3 Storey 14 Wall 0004,    !- Building Surface Name
    ,                         !- Outside Boundary Condition Object
    autocalculate,            !- View Factor to Ground
    ,                         !- Frame and Divider Name
    1,                        !- Multiplier
    autocalculate,            !- Number of Vertices
    36.428803761221644,       !- Vertex 1 Xcoordinate
    4.795446499175858,        !- Vertex 1 Ycoordinate
    43.95,                    !- Vertex 1 Zcoordinate
    36.428803761221644,       !- Vertex 2 Xcoordinate
    4.795446499175858,        !- Vertex 2 Ycoordinate
    43.05,                    !- Vertex 2 Zcoordinate
    36.366741360898885,       !- Vertex 3 Xcoordinate
    0.1444791,                !- Vertex 3 Ycoordinate
    43.05,                    !- Vertex 3 Zcoordinate
    36.366741360898885,       !- Vertex 4 Xcoordinate
    0.1444791,                !- Vertex 4 Ycoordinate
    43.95;                    !- Vertex 4 Zcoordinate

FENESTRATIONSURFACE:DETAILED,
    Block Poly_87_Residential_3 Storey 14 Wall 0005 window,    !- Name
    Window,                   !- Surface Type
    HSCWZ_Residential_2005_Win,    !- Construction Name
    Block Poly_87_Residential_3 Storey 14 Wall 0005,    !- Building Surface Name
    ,                         !- Outside Boundary Condition Object
    autocalculate,            !- View Factor to Ground
    ,                         !- Frame and Divider Name
    1,                        !- Multiplier
    autocalculate,            !- Number of Vertices
    36.37203692633443,        !- Vertex 1 Xcoordinate
    0.1420802,                !- Vertex 1 Ycoordinate
    43.95,                    !- Vertex 1 Zcoordinate
    36.37203692633443,        !- Vertex 2 Xcoordinate
    0.1420802,                !- Vertex 2 Ycoordinate
    43.05,                    !- Vertex 2 Zcoordinate
    47.014639066879,          !- Vertex 3 Xcoordinate
    7.107564178295e-05,       !- Vertex 3 Ycoordinate
    43.05,                    !- Vertex 3 Zcoordinate
    47.014639066879,          !- Vertex 4 Xcoordinate
    7.107564178295e-05,       !- Vertex 4 Ycoordinate
    43.95;                    !- Vertex 4 Zcoordinate

FENESTRATIONSURFACE:DETAILED,
    Block Poly_87_Residential_3 Storey 14 Wall 0006 window,    !- Name
    Window,                   !- Surface Type
    HSCWZ_Residential_2005_Win,    !- Construction Name
    Block Poly_87_Residential_3 Storey 14 Wall 0006,    !- Building Surface Name
    ,                         !- Outside Boundary Condition Object
    autocalculate,            !- View Factor to Ground
    ,                         !- Frame and Divider Name
    1,                        !- Multiplier
    autocalculate,            !- Number of Vertices
    47.02004431362328,        !- Vertex 1 Xcoordinate
    0.002327177,              !- Vertex 1 Ycoordinate
    43.95,                    !- Vertex 1 Zcoordinate
    47.02004431362328,        !- Vertex 2 Xcoordinate
    0.002327177,              !- Vertex 2 Ycoordinate
    43.05,                    !- Vertex 2 Zcoordinate
    47.177125168153374,       !- Vertex 3 Xcoordinate
    4.652026582837338,        !- Vertex 3 Ycoordinate
    43.05,                    !- Vertex 3 Zcoordinate
    47.177125168153374,       !- Vertex 4 Xcoordinate
    4.652026582837338,        !- Vertex 4 Ycoordinate
    43.95;                    !- Vertex 4 Zcoordinate

FENESTRATIONSURFACE:DETAILED,
    Block Poly_87_Residential_3 Storey 14 Wall 0007 window,    !- Name
    Window,                   !- Surface Type
    HSCWZ_Residential_2005_Win,    !- Construction Name
    Block Poly_87_Residential_3 Storey 14 Wall 0007,    !- Building Surface Name
    ,                         !- Outside Boundary Condition Object
    autocalculate,            !- View Factor to Ground
    ,                         !- Frame and Divider Name
    1,                        !- Multiplier
    autocalculate,            !- Number of Vertices
    47.18172116732556,        !- Vertex 1 Xcoordinate
    4.654238052508561,        !- Vertex 1 Ycoordinate
    43.95,                    !- Vertex 1 Zcoordinate
    47.18172116732556,        !- Vertex 2 Xcoordinate
    4.654238052508561,        !- Vertex 2 Ycoordinate
    43.05,                    !- Vertex 2 Zcoordinate
    56.2074466588315,         !- Vertex 3 Xcoordinate
    4.42305504965526,         !- Vertex 3 Ycoordinate
    43.05,                    !- Vertex 3 Zcoordinate
    56.2074466588315,         !- Vertex 4 Xcoordinate
    4.42305504965526,         !- Vertex 4 Ycoordinate
    43.95;                    !- Vertex 4 Zcoordinate

FENESTRATIONSURFACE:DETAILED,
    Block Poly_87_Residential_3 Storey 14 Wall 0008 window,    !- Name
    Window,                   !- Surface Type
    HSCWZ_Residential_2005_Win,    !- Construction Name
    Block Poly_87_Residential_3 Storey 14 Wall 0008,    !- Building Surface Name
    ,                         !- Outside Boundary Condition Object
    autocalculate,            !- View Factor to Ground
    ,                         !- Frame and Divider Name
    1,                        !- Multiplier
    autocalculate,            !- Number of Vertices
    56.211977856201294,       !- Vertex 1 Xcoordinate
    4.427540175773902,        !- Vertex 1 Ycoordinate
    43.95,                    !- Vertex 1 Zcoordinate
    56.211977856201294,       !- Vertex 2 Xcoordinate
    4.427540175773902,        !- Vertex 2 Ycoordinate
    43.05,                    !- Vertex 2 Zcoordinate
    56.23958470955008,        !- Vertex 3 Xcoordinate
    13.620005163672612,       !- Vertex 3 Ycoordinate
    43.05,                    !- Vertex 3 Zcoordinate
    56.23958470955008,        !- Vertex 4 Xcoordinate
    13.620005163672612,       !- Vertex 4 Ycoordinate
    43.95;                    !- Vertex 4 Zcoordinate

FENESTRATIONSURFACE:DETAILED,
    Block Poly_87_Residential_3 Storey 14 Wall 0009 window,    !- Name
    Window,                   !- Surface Type
    HSCWZ_Residential_2005_Win,    !- Construction Name
    Block Poly_87_Residential_3 Storey 14 Wall 0009,    !- Building Surface Name
    ,                         !- Outside Boundary Condition Object
    autocalculate,            !- View Factor to Ground
    ,                         !- Frame and Divider Name
    1,                        !- Multiplier
    autocalculate,            !- Number of Vertices
    56.211540128609165,       !- Vertex 1 Xcoordinate
    13.625091299078194,       !- Vertex 1 Ycoordinate
    43.95,                    !- Vertex 1 Zcoordinate
    56.211540128609165,       !- Vertex 2 Xcoordinate
    13.625091299078194,       !- Vertex 2 Ycoordinate
    43.05,                    !- Vertex 2 Zcoordinate
    0.1508606,                !- Vertex 3 Xcoordinate
    14.59472485153121,        !- Vertex 3 Ycoordinate
    43.05,                    !- Vertex 3 Zcoordinate
    0.1508606,                !- Vertex 4 Xcoordinate
    14.59472485153121,        !- Vertex 4 Ycoordinate
    43.95;                    !- Vertex 4 Zcoordinate

FENESTRATIONSURFACE:DETAILED,
    Block Poly_87_Residential_3 Storey 14 Wall 0010 window,    !- Name
    Window,                   !- Surface Type
    HSCWZ_Residential_2005_Win,    !- Construction Name
    Block Poly_87_Residential_3 Storey 14 Wall 0010,    !- Building Surface Name
    ,                         !- Outside Boundary Condition Object
    autocalculate,            !- View Factor to Ground
    ,                         !- Frame and Divider Name
    1,                        !- Multiplier
    autocalculate,            !- Number of Vertices
    0.1227408,                !- Vertex 1 Xcoordinate
    14.590609954259591,       !- Vertex 1 Ycoordinate
    43.95,                    !- Vertex 1 Zcoordinate
    0.1227408,                !- Vertex 2 Xcoordinate
    14.590609954259591,       !- Vertex 2 Ycoordinate
    43.05,                    !- Vertex 2 Zcoordinate
    6.140108e-05,             !- Vertex 3 Xcoordinate
    5.39941165311332,         !- Vertex 3 Ycoordinate
    43.05,                    !- Vertex 3 Zcoordinate
    6.140108e-05,             !- Vertex 4 Xcoordinate
    5.39941165311332,         !- Vertex 4 Ycoordinate
    43.95;                    !- Vertex 4 Zcoordinate

FENESTRATIONSURFACE:DETAILED,
    Block Poly_87_Residential_3 Storey 14 Wall 0011 window,    !- Name
    Window,                   !- Surface Type
    HSCWZ_Residential_2005_Win,    !- Construction Name
    Block Poly_87_Residential_3 Storey 14 Wall 0011,    !- Building Surface Name
    ,                         !- Outside Boundary Condition Object
    autocalculate,            !- View Factor to Ground
    ,                         !- Frame and Divider Name
    1,                        !- Multiplier
    autocalculate,            !- Number of Vertices
    0.004185206,              !- Vertex 1 Xcoordinate
    5.3947555935424765,       !- Vertex 1 Ycoordinate
    43.95,                    !- Vertex 1 Zcoordinate
    0.004185206,              !- Vertex 2 Xcoordinate
    5.3947555935424765,       !- Vertex 2 Ycoordinate
    43.05,                    !- Vertex 2 Zcoordinate
    8.366226615788385,        !- Vertex 3 Xcoordinate
    5.283146872143727,        !- Vertex 3 Ycoordinate
    43.05,                    !- Vertex 3 Zcoordinate
    8.366226615788385,        !- Vertex 4 Xcoordinate
    5.283146872143727,        !- Vertex 4 Ycoordinate
    43.95;                    !- Vertex 4 Zcoordinate

FENESTRATIONSURFACE:DETAILED,
    Block Poly_87_Residential_3 Storey 14 Wall 0012 window,    !- Name
    Window,                   !- Surface Type
    HSCWZ_Residential_2005_Win,    !- Construction Name
    Block Poly_87_Residential_3 Storey 14 Wall 0012,    !- Building Surface Name
    ,                         !- Outside Boundary Condition Object
    autocalculate,            !- View Factor to Ground
    ,                         !- Frame and Divider Name
    1,                        !- Multiplier
    autocalculate,            !- Number of Vertices
    8.370380753192352,        !- Vertex 1 Xcoordinate
    5.2807632002669855,       !- Vertex 1 Ycoordinate
    43.95,                    !- Vertex 1 Zcoordinate
    8.370380753192352,        !- Vertex 2 Xcoordinate
    5.2807632002669855,       !- Vertex 2 Ycoordinate
    43.05,                    !- Vertex 2 Zcoordinate
    8.308305876439205,        !- Vertex 3 Xcoordinate
    0.6297955119360705,       !- Vertex 3 Ycoordinate
    43.05,                    !- Vertex 3 Zcoordinate
    8.308305876439205,        !- Vertex 4 Xcoordinate
    0.6297955119360705,       !- Vertex 4 Ycoordinate
    43.95;                    !- Vertex 4 Zcoordinate

FENESTRATIONSURFACE:DETAILED,
    Block Poly_87_Residential_3 Storey 15 Wall 0001 window,    !- Name
    Window,                   !- Surface Type
    HSCWZ_Residential_2005_Win,    !- Construction Name
    Block Poly_87_Residential_3 Storey 15 Wall 0001,    !- Building Surface Name
    ,                         !- Outside Boundary Condition Object
    autocalculate,            !- View Factor to Ground
    ,                         !- Frame and Divider Name
    1,                        !- Multiplier
    autocalculate,            !- Number of Vertices
    8.313601435898395,        !- Vertex 1 Xcoordinate
    0.6273966103503481,       !- Vertex 1 Ycoordinate
    46.95,                    !- Vertex 1 Zcoordinate
    8.313601435898395,        !- Vertex 2 Xcoordinate
    0.6273966103503481,       !- Vertex 2 Ycoordinate
    46.05,                    !- Vertex 2 Zcoordinate
    18.956204112115724,       !- Vertex 3 Xcoordinate
    0.4853589,                !- Vertex 3 Ycoordinate
    46.05,                    !- Vertex 3 Zcoordinate
    18.956204112115724,       !- Vertex 4 Xcoordinate
    0.4853589,                !- Vertex 4 Ycoordinate
    46.95;                    !- Vertex 4 Zcoordinate

FENESTRATIONSURFACE:DETAILED,
    Block Poly_87_Residential_3 Storey 15 Wall 0002 window,    !- Name
    Window,                   !- Surface Type
    HSCWZ_Residential_2005_Win,    !- Construction Name
    Block Poly_87_Residential_3 Storey 15 Wall 0002,    !- Building Surface Name
    ,                         !- Outside Boundary Condition Object
    autocalculate,            !- View Factor to Ground
    ,                         !- Frame and Divider Name
    1,                        !- Multiplier
    autocalculate,            !- Number of Vertices
    18.96160862570512,        !- Vertex 1 Xcoordinate
    0.4875596,                !- Vertex 1 Ycoordinate
    46.95,                    !- Vertex 1 Zcoordinate
    18.96160862570512,        !- Vertex 2 Xcoordinate
    0.4875596,                !- Vertex 2 Ycoordinate
    46.05,                    !- Vertex 2 Zcoordinate
    19.117224101104078,       !- Vertex 3 Xcoordinate
    5.026521704155952,        !- Vertex 3 Ycoordinate
    46.05,                    !- Vertex 3 Zcoordinate
    19.117224101104078,       !- Vertex 4 Xcoordinate
    5.026521704155952,        !- Vertex 4 Ycoordinate
    46.95;                    !- Vertex 4 Zcoordinate

FENESTRATIONSURFACE:DETAILED,
    Block Poly_87_Residential_3 Storey 15 Wall 0003 window,    !- Name
    Window,                   !- Surface Type
    HSCWZ_Residential_2005_Win,    !- Construction Name
    Block Poly_87_Residential_3 Storey 15 Wall 0003,    !- Building Surface Name
    ,                         !- Outside Boundary Condition Object
    autocalculate,            !- View Factor to Ground
    ,                         !- Frame and Divider Name
    1,                        !- Multiplier
    autocalculate,            !- Number of Vertices
    19.12595775314578,        !- Vertex 1 Xcoordinate
    5.028677947391057,        !- Vertex 1 Ycoordinate
    46.95,                    !- Vertex 1 Zcoordinate
    19.12595775314578,        !- Vertex 2 Xcoordinate
    5.028677947391057,        !- Vertex 2 Ycoordinate
    46.05,                    !- Vertex 2 Zcoordinate
    36.42017905706569,        !- Vertex 3 Xcoordinate
    4.797889820262558,        !- Vertex 3 Ycoordinate
    46.05,                    !- Vertex 3 Zcoordinate
    36.42017905706569,        !- Vertex 4 Xcoordinate
    4.797889820262558,        !- Vertex 4 Ycoordinate
    46.95;                    !- Vertex 4 Zcoordinate

FENESTRATIONSURFACE:DETAILED,
    Block Poly_87_Residential_3 Storey 15 Wall 0004 window,    !- Name
    Window,                   !- Surface Type
    HSCWZ_Residential_2005_Win,    !- Construction Name
    Block Poly_87_Residential_3 Storey 15 Wall 0004,    !- Building Surface Name
    ,                         !- Outside Boundary Condition Object
    autocalculate,            !- View Factor to Ground
    ,                         !- Frame and Divider Name
    1,                        !- Multiplier
    autocalculate,            !- Number of Vertices
    36.428803761221644,       !- Vertex 1 Xcoordinate
    4.795446499175858,        !- Vertex 1 Ycoordinate
    46.95,                    !- Vertex 1 Zcoordinate
    36.428803761221644,       !- Vertex 2 Xcoordinate
    4.795446499175858,        !- Vertex 2 Ycoordinate
    46.05,                    !- Vertex 2 Zcoordinate
    36.366741360898885,       !- Vertex 3 Xcoordinate
    0.1444791,                !- Vertex 3 Ycoordinate
    46.05,                    !- Vertex 3 Zcoordinate
    36.366741360898885,       !- Vertex 4 Xcoordinate
    0.1444791,                !- Vertex 4 Ycoordinate
    46.95;                    !- Vertex 4 Zcoordinate

FENESTRATIONSURFACE:DETAILED,
    Block Poly_87_Residential_3 Storey 15 Wall 0005 window,    !- Name
    Window,                   !- Surface Type
    HSCWZ_Residential_2005_Win,    !- Construction Name
    Block Poly_87_Residential_3 Storey 15 Wall 0005,    !- Building Surface Name
    ,                         !- Outside Boundary Condition Object
    autocalculate,            !- View Factor to Ground
    ,                         !- Frame and Divider Name
    1,                        !- Multiplier
    autocalculate,            !- Number of Vertices
    36.37203692633443,        !- Vertex 1 Xcoordinate
    0.1420802,                !- Vertex 1 Ycoordinate
    46.95,                    !- Vertex 1 Zcoordinate
    36.37203692633443,        !- Vertex 2 Xcoordinate
    0.1420802,                !- Vertex 2 Ycoordinate
    46.05,                    !- Vertex 2 Zcoordinate
    47.014639066879,          !- Vertex 3 Xcoordinate
    7.107564178295e-05,       !- Vertex 3 Ycoordinate
    46.05,                    !- Vertex 3 Zcoordinate
    47.014639066879,          !- Vertex 4 Xcoordinate
    7.107564178295e-05,       !- Vertex 4 Ycoordinate
    46.95;                    !- Vertex 4 Zcoordinate

FENESTRATIONSURFACE:DETAILED,
    Block Poly_87_Residential_3 Storey 15 Wall 0006 window,    !- Name
    Window,                   !- Surface Type
    HSCWZ_Residential_2005_Win,    !- Construction Name
    Block Poly_87_Residential_3 Storey 15 Wall 0006,    !- Building Surface Name
    ,                         !- Outside Boundary Condition Object
    autocalculate,            !- View Factor to Ground
    ,                         !- Frame and Divider Name
    1,                        !- Multiplier
    autocalculate,            !- Number of Vertices
    47.02004431362328,        !- Vertex 1 Xcoordinate
    0.002327177,              !- Vertex 1 Ycoordinate
    46.95,                    !- Vertex 1 Zcoordinate
    47.02004431362328,        !- Vertex 2 Xcoordinate
    0.002327177,              !- Vertex 2 Ycoordinate
    46.05,                    !- Vertex 2 Zcoordinate
    47.177125168153374,       !- Vertex 3 Xcoordinate
    4.652026582837338,        !- Vertex 3 Ycoordinate
    46.05,                    !- Vertex 3 Zcoordinate
    47.177125168153374,       !- Vertex 4 Xcoordinate
    4.652026582837338,        !- Vertex 4 Ycoordinate
    46.95;                    !- Vertex 4 Zcoordinate

FENESTRATIONSURFACE:DETAILED,
    Block Poly_87_Residential_3 Storey 15 Wall 0007 window,    !- Name
    Window,                   !- Surface Type
    HSCWZ_Residential_2005_Win,    !- Construction Name
    Block Poly_87_Residential_3 Storey 15 Wall 0007,    !- Building Surface Name
    ,                         !- Outside Boundary Condition Object
    autocalculate,            !- View Factor to Ground
    ,                         !- Frame and Divider Name
    1,                        !- Multiplier
    autocalculate,            !- Number of Vertices
    47.18172116732556,        !- Vertex 1 Xcoordinate
    4.654238052508561,        !- Vertex 1 Ycoordinate
    46.95,                    !- Vertex 1 Zcoordinate
    47.18172116732556,        !- Vertex 2 Xcoordinate
    4.654238052508561,        !- Vertex 2 Ycoordinate
    46.05,                    !- Vertex 2 Zcoordinate
    56.2074466588315,         !- Vertex 3 Xcoordinate
    4.42305504965526,         !- Vertex 3 Ycoordinate
    46.05,                    !- Vertex 3 Zcoordinate
    56.2074466588315,         !- Vertex 4 Xcoordinate
    4.42305504965526,         !- Vertex 4 Ycoordinate
    46.95;                    !- Vertex 4 Zcoordinate

FENESTRATIONSURFACE:DETAILED,
    Block Poly_87_Residential_3 Storey 15 Wall 0008 window,    !- Name
    Window,                   !- Surface Type
    HSCWZ_Residential_2005_Win,    !- Construction Name
    Block Poly_87_Residential_3 Storey 15 Wall 0008,    !- Building Surface Name
    ,                         !- Outside Boundary Condition Object
    autocalculate,            !- View Factor to Ground
    ,                         !- Frame and Divider Name
    1,                        !- Multiplier
    autocalculate,            !- Number of Vertices
    56.211977856201294,       !- Vertex 1 Xcoordinate
    4.427540175773902,        !- Vertex 1 Ycoordinate
    46.95,                    !- Vertex 1 Zcoordinate
    56.211977856201294,       !- Vertex 2 Xcoordinate
    4.427540175773902,        !- Vertex 2 Ycoordinate
    46.05,                    !- Vertex 2 Zcoordinate
    56.23958470955008,        !- Vertex 3 Xcoordinate
    13.620005163672612,       !- Vertex 3 Ycoordinate
    46.05,                    !- Vertex 3 Zcoordinate
    56.23958470955008,        !- Vertex 4 Xcoordinate
    13.620005163672612,       !- Vertex 4 Ycoordinate
    46.95;                    !- Vertex 4 Zcoordinate

FENESTRATIONSURFACE:DETAILED,
    Block Poly_87_Residential_3 Storey 15 Wall 0009 window,    !- Name
    Window,                   !- Surface Type
    HSCWZ_Residential_2005_Win,    !- Construction Name
    Block Poly_87_Residential_3 Storey 15 Wall 0009,    !- Building Surface Name
    ,                         !- Outside Boundary Condition Object
    autocalculate,            !- View Factor to Ground
    ,                         !- Frame and Divider Name
    1,                        !- Multiplier
    autocalculate,            !- Number of Vertices
    56.211540128609165,       !- Vertex 1 Xcoordinate
    13.625091299078194,       !- Vertex 1 Ycoordinate
    46.95,                    !- Vertex 1 Zcoordinate
    56.211540128609165,       !- Vertex 2 Xcoordinate
    13.625091299078194,       !- Vertex 2 Ycoordinate
    46.05,                    !- Vertex 2 Zcoordinate
    0.1508606,                !- Vertex 3 Xcoordinate
    14.59472485153121,        !- Vertex 3 Ycoordinate
    46.05,                    !- Vertex 3 Zcoordinate
    0.1508606,                !- Vertex 4 Xcoordinate
    14.59472485153121,        !- Vertex 4 Ycoordinate
    46.95;                    !- Vertex 4 Zcoordinate

FENESTRATIONSURFACE:DETAILED,
    Block Poly_87_Residential_3 Storey 15 Wall 0010 window,    !- Name
    Window,                   !- Surface Type
    HSCWZ_Residential_2005_Win,    !- Construction Name
    Block Poly_87_Residential_3 Storey 15 Wall 0010,    !- Building Surface Name
    ,                         !- Outside Boundary Condition Object
    autocalculate,            !- View Factor to Ground
    ,                         !- Frame and Divider Name
    1,                        !- Multiplier
    autocalculate,            !- Number of Vertices
    0.1227408,                !- Vertex 1 Xcoordinate
    14.590609954259591,       !- Vertex 1 Ycoordinate
    46.95,                    !- Vertex 1 Zcoordinate
    0.1227408,                !- Vertex 2 Xcoordinate
    14.590609954259591,       !- Vertex 2 Ycoordinate
    46.05,                    !- Vertex 2 Zcoordinate
    6.140108e-05,             !- Vertex 3 Xcoordinate
    5.39941165311332,         !- Vertex 3 Ycoordinate
    46.05,                    !- Vertex 3 Zcoordinate
    6.140108e-05,             !- Vertex 4 Xcoordinate
    5.39941165311332,         !- Vertex 4 Ycoordinate
    46.95;                    !- Vertex 4 Zcoordinate

FENESTRATIONSURFACE:DETAILED,
    Block Poly_87_Residential_3 Storey 15 Wall 0011 window,    !- Name
    Window,                   !- Surface Type
    HSCWZ_Residential_2005_Win,    !- Construction Name
    Block Poly_87_Residential_3 Storey 15 Wall 0011,    !- Building Surface Name
    ,                         !- Outside Boundary Condition Object
    autocalculate,            !- View Factor to Ground
    ,                         !- Frame and Divider Name
    1,                        !- Multiplier
    autocalculate,            !- Number of Vertices
    0.004185206,              !- Vertex 1 Xcoordinate
    5.3947555935424765,       !- Vertex 1 Ycoordinate
    46.95,                    !- Vertex 1 Zcoordinate
    0.004185206,              !- Vertex 2 Xcoordinate
    5.3947555935424765,       !- Vertex 2 Ycoordinate
    46.05,                    !- Vertex 2 Zcoordinate
    8.366226615788385,        !- Vertex 3 Xcoordinate
    5.283146872143727,        !- Vertex 3 Ycoordinate
    46.05,                    !- Vertex 3 Zcoordinate
    8.366226615788385,        !- Vertex 4 Xcoordinate
    5.283146872143727,        !- Vertex 4 Ycoordinate
    46.95;                    !- Vertex 4 Zcoordinate

FENESTRATIONSURFACE:DETAILED,
    Block Poly_87_Residential_3 Storey 15 Wall 0012 window,    !- Name
    Window,                   !- Surface Type
    HSCWZ_Residential_2005_Win,    !- Construction Name
    Block Poly_87_Residential_3 Storey 15 Wall 0012,    !- Building Surface Name
    ,                         !- Outside Boundary Condition Object
    autocalculate,            !- View Factor to Ground
    ,                         !- Frame and Divider Name
    1,                        !- Multiplier
    autocalculate,            !- Number of Vertices
    8.370380753192352,        !- Vertex 1 Xcoordinate
    5.2807632002669855,       !- Vertex 1 Ycoordinate
    46.95,                    !- Vertex 1 Zcoordinate
    8.370380753192352,        !- Vertex 2 Xcoordinate
    5.2807632002669855,       !- Vertex 2 Ycoordinate
    46.05,                    !- Vertex 2 Zcoordinate
    8.308305876439205,        !- Vertex 3 Xcoordinate
    0.6297955119360705,       !- Vertex 3 Ycoordinate
    46.05,                    !- Vertex 3 Zcoordinate
    8.308305876439205,        !- Vertex 4 Xcoordinate
    0.6297955119360705,       !- Vertex 4 Ycoordinate
    46.95;                    !- Vertex 4 Zcoordinate

FENESTRATIONSURFACE:DETAILED,
    Block Poly_87_Residential_3 Storey 16 Wall 0001 window,    !- Name
    Window,                   !- Surface Type
    HSCWZ_Residential_2005_Win,    !- Construction Name
    Block Poly_87_Residential_3 Storey 16 Wall 0001,    !- Building Surface Name
    ,                         !- Outside Boundary Condition Object
    autocalculate,            !- View Factor to Ground
    ,                         !- Frame and Divider Name
    1,                        !- Multiplier
    autocalculate,            !- Number of Vertices
    8.313601435898395,        !- Vertex 1 Xcoordinate
    0.6273966103503481,       !- Vertex 1 Ycoordinate
    49.95,                    !- Vertex 1 Zcoordinate
    8.313601435898395,        !- Vertex 2 Xcoordinate
    0.6273966103503481,       !- Vertex 2 Ycoordinate
    49.05,                    !- Vertex 2 Zcoordinate
    18.956204112115724,       !- Vertex 3 Xcoordinate
    0.4853589,                !- Vertex 3 Ycoordinate
    49.05,                    !- Vertex 3 Zcoordinate
    18.956204112115724,       !- Vertex 4 Xcoordinate
    0.4853589,                !- Vertex 4 Ycoordinate
    49.95;                    !- Vertex 4 Zcoordinate

FENESTRATIONSURFACE:DETAILED,
    Block Poly_87_Residential_3 Storey 16 Wall 0002 window,    !- Name
    Window,                   !- Surface Type
    HSCWZ_Residential_2005_Win,    !- Construction Name
    Block Poly_87_Residential_3 Storey 16 Wall 0002,    !- Building Surface Name
    ,                         !- Outside Boundary Condition Object
    autocalculate,            !- View Factor to Ground
    ,                         !- Frame and Divider Name
    1,                        !- Multiplier
    autocalculate,            !- Number of Vertices
    18.96160862570512,        !- Vertex 1 Xcoordinate
    0.4875596,                !- Vertex 1 Ycoordinate
    49.95,                    !- Vertex 1 Zcoordinate
    18.96160862570512,        !- Vertex 2 Xcoordinate
    0.4875596,                !- Vertex 2 Ycoordinate
    49.05,                    !- Vertex 2 Zcoordinate
    19.117224101104078,       !- Vertex 3 Xcoordinate
    5.026521704155952,        !- Vertex 3 Ycoordinate
    49.05,                    !- Vertex 3 Zcoordinate
    19.117224101104078,       !- Vertex 4 Xcoordinate
    5.026521704155952,        !- Vertex 4 Ycoordinate
    49.95;                    !- Vertex 4 Zcoordinate

FENESTRATIONSURFACE:DETAILED,
    Block Poly_87_Residential_3 Storey 16 Wall 0003 window,    !- Name
    Window,                   !- Surface Type
    HSCWZ_Residential_2005_Win,    !- Construction Name
    Block Poly_87_Residential_3 Storey 16 Wall 0003,    !- Building Surface Name
    ,                         !- Outside Boundary Condition Object
    autocalculate,            !- View Factor to Ground
    ,                         !- Frame and Divider Name
    1,                        !- Multiplier
    autocalculate,            !- Number of Vertices
    19.12595775314578,        !- Vertex 1 Xcoordinate
    5.028677947391057,        !- Vertex 1 Ycoordinate
    49.95,                    !- Vertex 1 Zcoordinate
    19.12595775314578,        !- Vertex 2 Xcoordinate
    5.028677947391057,        !- Vertex 2 Ycoordinate
    49.05,                    !- Vertex 2 Zcoordinate
    36.42017905706569,        !- Vertex 3 Xcoordinate
    4.797889820262558,        !- Vertex 3 Ycoordinate
    49.05,                    !- Vertex 3 Zcoordinate
    36.42017905706569,        !- Vertex 4 Xcoordinate
    4.797889820262558,        !- Vertex 4 Ycoordinate
    49.95;                    !- Vertex 4 Zcoordinate

FENESTRATIONSURFACE:DETAILED,
    Block Poly_87_Residential_3 Storey 16 Wall 0004 window,    !- Name
    Window,                   !- Surface Type
    HSCWZ_Residential_2005_Win,    !- Construction Name
    Block Poly_87_Residential_3 Storey 16 Wall 0004,    !- Building Surface Name
    ,                         !- Outside Boundary Condition Object
    autocalculate,            !- View Factor to Ground
    ,                         !- Frame and Divider Name
    1,                        !- Multiplier
    autocalculate,            !- Number of Vertices
    36.428803761221644,       !- Vertex 1 Xcoordinate
    4.795446499175858,        !- Vertex 1 Ycoordinate
    49.95,                    !- Vertex 1 Zcoordinate
    36.428803761221644,       !- Vertex 2 Xcoordinate
    4.795446499175858,        !- Vertex 2 Ycoordinate
    49.05,                    !- Vertex 2 Zcoordinate
    36.366741360898885,       !- Vertex 3 Xcoordinate
    0.1444791,                !- Vertex 3 Ycoordinate
    49.05,                    !- Vertex 3 Zcoordinate
    36.366741360898885,       !- Vertex 4 Xcoordinate
    0.1444791,                !- Vertex 4 Ycoordinate
    49.95;                    !- Vertex 4 Zcoordinate

FENESTRATIONSURFACE:DETAILED,
    Block Poly_87_Residential_3 Storey 16 Wall 0005 window,    !- Name
    Window,                   !- Surface Type
    HSCWZ_Residential_2005_Win,    !- Construction Name
    Block Poly_87_Residential_3 Storey 16 Wall 0005,    !- Building Surface Name
    ,                         !- Outside Boundary Condition Object
    autocalculate,            !- View Factor to Ground
    ,                         !- Frame and Divider Name
    1,                        !- Multiplier
    autocalculate,            !- Number of Vertices
    36.37203692633443,        !- Vertex 1 Xcoordinate
    0.1420802,                !- Vertex 1 Ycoordinate
    49.95,                    !- Vertex 1 Zcoordinate
    36.37203692633443,        !- Vertex 2 Xcoordinate
    0.1420802,                !- Vertex 2 Ycoordinate
    49.05,                    !- Vertex 2 Zcoordinate
    47.014639066879,          !- Vertex 3 Xcoordinate
    7.107564178295e-05,       !- Vertex 3 Ycoordinate
    49.05,                    !- Vertex 3 Zcoordinate
    47.014639066879,          !- Vertex 4 Xcoordinate
    7.107564178295e-05,       !- Vertex 4 Ycoordinate
    49.95;                    !- Vertex 4 Zcoordinate

FENESTRATIONSURFACE:DETAILED,
    Block Poly_87_Residential_3 Storey 16 Wall 0006 window,    !- Name
    Window,                   !- Surface Type
    HSCWZ_Residential_2005_Win,    !- Construction Name
    Block Poly_87_Residential_3 Storey 16 Wall 0006,    !- Building Surface Name
    ,                         !- Outside Boundary Condition Object
    autocalculate,            !- View Factor to Ground
    ,                         !- Frame and Divider Name
    1,                        !- Multiplier
    autocalculate,            !- Number of Vertices
    47.02004431362328,        !- Vertex 1 Xcoordinate
    0.002327177,              !- Vertex 1 Ycoordinate
    49.95,                    !- Vertex 1 Zcoordinate
    47.02004431362328,        !- Vertex 2 Xcoordinate
    0.002327177,              !- Vertex 2 Ycoordinate
    49.05,                    !- Vertex 2 Zcoordinate
    47.177125168153374,       !- Vertex 3 Xcoordinate
    4.652026582837338,        !- Vertex 3 Ycoordinate
    49.05,                    !- Vertex 3 Zcoordinate
    47.177125168153374,       !- Vertex 4 Xcoordinate
    4.652026582837338,        !- Vertex 4 Ycoordinate
    49.95;                    !- Vertex 4 Zcoordinate

FENESTRATIONSURFACE:DETAILED,
    Block Poly_87_Residential_3 Storey 16 Wall 0007 window,    !- Name
    Window,                   !- Surface Type
    HSCWZ_Residential_2005_Win,    !- Construction Name
    Block Poly_87_Residential_3 Storey 16 Wall 0007,    !- Building Surface Name
    ,                         !- Outside Boundary Condition Object
    autocalculate,            !- View Factor to Ground
    ,                         !- Frame and Divider Name
    1,                        !- Multiplier
    autocalculate,            !- Number of Vertices
    47.18172116732556,        !- Vertex 1 Xcoordinate
    4.654238052508561,        !- Vertex 1 Ycoordinate
    49.95,                    !- Vertex 1 Zcoordinate
    47.18172116732556,        !- Vertex 2 Xcoordinate
    4.654238052508561,        !- Vertex 2 Ycoordinate
    49.05,                    !- Vertex 2 Zcoordinate
    56.2074466588315,         !- Vertex 3 Xcoordinate
    4.42305504965526,         !- Vertex 3 Ycoordinate
    49.05,                    !- Vertex 3 Zcoordinate
    56.2074466588315,         !- Vertex 4 Xcoordinate
    4.42305504965526,         !- Vertex 4 Ycoordinate
    49.95;                    !- Vertex 4 Zcoordinate

FENESTRATIONSURFACE:DETAILED,
    Block Poly_87_Residential_3 Storey 16 Wall 0008 window,    !- Name
    Window,                   !- Surface Type
    HSCWZ_Residential_2005_Win,    !- Construction Name
    Block Poly_87_Residential_3 Storey 16 Wall 0008,    !- Building Surface Name
    ,                         !- Outside Boundary Condition Object
    autocalculate,            !- View Factor to Ground
    ,                         !- Frame and Divider Name
    1,                        !- Multiplier
    autocalculate,            !- Number of Vertices
    56.211977856201294,       !- Vertex 1 Xcoordinate
    4.427540175773902,        !- Vertex 1 Ycoordinate
    49.95,                    !- Vertex 1 Zcoordinate
    56.211977856201294,       !- Vertex 2 Xcoordinate
    4.427540175773902,        !- Vertex 2 Ycoordinate
    49.05,                    !- Vertex 2 Zcoordinate
    56.23958470955008,        !- Vertex 3 Xcoordinate
    13.620005163672612,       !- Vertex 3 Ycoordinate
    49.05,                    !- Vertex 3 Zcoordinate
    56.23958470955008,        !- Vertex 4 Xcoordinate
    13.620005163672612,       !- Vertex 4 Ycoordinate
    49.95;                    !- Vertex 4 Zcoordinate

FENESTRATIONSURFACE:DETAILED,
    Block Poly_87_Residential_3 Storey 16 Wall 0009 window,    !- Name
    Window,                   !- Surface Type
    HSCWZ_Residential_2005_Win,    !- Construction Name
    Block Poly_87_Residential_3 Storey 16 Wall 0009,    !- Building Surface Name
    ,                         !- Outside Boundary Condition Object
    autocalculate,            !- View Factor to Ground
    ,                         !- Frame and Divider Name
    1,                        !- Multiplier
    autocalculate,            !- Number of Vertices
    56.211540128609165,       !- Vertex 1 Xcoordinate
    13.625091299078194,       !- Vertex 1 Ycoordinate
    49.95,                    !- Vertex 1 Zcoordinate
    56.211540128609165,       !- Vertex 2 Xcoordinate
    13.625091299078194,       !- Vertex 2 Ycoordinate
    49.05,                    !- Vertex 2 Zcoordinate
    0.1508606,                !- Vertex 3 Xcoordinate
    14.59472485153121,        !- Vertex 3 Ycoordinate
    49.05,                    !- Vertex 3 Zcoordinate
    0.1508606,                !- Vertex 4 Xcoordinate
    14.59472485153121,        !- Vertex 4 Ycoordinate
    49.95;                    !- Vertex 4 Zcoordinate

FENESTRATIONSURFACE:DETAILED,
    Block Poly_87_Residential_3 Storey 16 Wall 0010 window,    !- Name
    Window,                   !- Surface Type
    HSCWZ_Residential_2005_Win,    !- Construction Name
    Block Poly_87_Residential_3 Storey 16 Wall 0010,    !- Building Surface Name
    ,                         !- Outside Boundary Condition Object
    autocalculate,            !- View Factor to Ground
    ,                         !- Frame and Divider Name
    1,                        !- Multiplier
    autocalculate,            !- Number of Vertices
    0.1227408,                !- Vertex 1 Xcoordinate
    14.590609954259591,       !- Vertex 1 Ycoordinate
    49.95,                    !- Vertex 1 Zcoordinate
    0.1227408,                !- Vertex 2 Xcoordinate
    14.590609954259591,       !- Vertex 2 Ycoordinate
    49.05,                    !- Vertex 2 Zcoordinate
    6.140108e-05,             !- Vertex 3 Xcoordinate
    5.39941165311332,         !- Vertex 3 Ycoordinate
    49.05,                    !- Vertex 3 Zcoordinate
    6.140108e-05,             !- Vertex 4 Xcoordinate
    5.39941165311332,         !- Vertex 4 Ycoordinate
    49.95;                    !- Vertex 4 Zcoordinate

FENESTRATIONSURFACE:DETAILED,
    Block Poly_87_Residential_3 Storey 16 Wall 0011 window,    !- Name
    Window,                   !- Surface Type
    HSCWZ_Residential_2005_Win,    !- Construction Name
    Block Poly_87_Residential_3 Storey 16 Wall 0011,    !- Building Surface Name
    ,                         !- Outside Boundary Condition Object
    autocalculate,            !- View Factor to Ground
    ,                         !- Frame and Divider Name
    1,                        !- Multiplier
    autocalculate,            !- Number of Vertices
    0.004185206,              !- Vertex 1 Xcoordinate
    5.3947555935424765,       !- Vertex 1 Ycoordinate
    49.95,                    !- Vertex 1 Zcoordinate
    0.004185206,              !- Vertex 2 Xcoordinate
    5.3947555935424765,       !- Vertex 2 Ycoordinate
    49.05,                    !- Vertex 2 Zcoordinate
    8.366226615788385,        !- Vertex 3 Xcoordinate
    5.283146872143727,        !- Vertex 3 Ycoordinate
    49.05,                    !- Vertex 3 Zcoordinate
    8.366226615788385,        !- Vertex 4 Xcoordinate
    5.283146872143727,        !- Vertex 4 Ycoordinate
    49.95;                    !- Vertex 4 Zcoordinate

FENESTRATIONSURFACE:DETAILED,
    Block Poly_87_Residential_3 Storey 16 Wall 0012 window,    !- Name
    Window,                   !- Surface Type
    HSCWZ_Residential_2005_Win,    !- Construction Name
    Block Poly_87_Residential_3 Storey 16 Wall 0012,    !- Building Surface Name
    ,                         !- Outside Boundary Condition Object
    autocalculate,            !- View Factor to Ground
    ,                         !- Frame and Divider Name
    1,                        !- Multiplier
    autocalculate,            !- Number of Vertices
    8.370380753192352,        !- Vertex 1 Xcoordinate
    5.2807632002669855,       !- Vertex 1 Ycoordinate
    49.95,                    !- Vertex 1 Zcoordinate
    8.370380753192352,        !- Vertex 2 Xcoordinate
    5.2807632002669855,       !- Vertex 2 Ycoordinate
    49.05,                    !- Vertex 2 Zcoordinate
    8.308305876439205,        !- Vertex 3 Xcoordinate
    0.6297955119360705,       !- Vertex 3 Ycoordinate
    49.05,                    !- Vertex 3 Zcoordinate
    8.308305876439205,        !- Vertex 4 Xcoordinate
    0.6297955119360705,       !- Vertex 4 Ycoordinate
    49.95;                    !- Vertex 4 Zcoordinate

FENESTRATIONSURFACE:DETAILED,
    Block Poly_87_Residential_3 Storey 17 Wall 0001 window,    !- Name
    Window,                   !- Surface Type
    HSCWZ_Residential_2005_Win,    !- Construction Name
    Block Poly_87_Residential_3 Storey 17 Wall 0001,    !- Building Surface Name
    ,                         !- Outside Boundary Condition Object
    autocalculate,            !- View Factor to Ground
    ,                         !- Frame and Divider Name
    1,                        !- Multiplier
    autocalculate,            !- Number of Vertices
    8.313601435898395,        !- Vertex 1 Xcoordinate
    0.6273966103503481,       !- Vertex 1 Ycoordinate
    52.95,                    !- Vertex 1 Zcoordinate
    8.313601435898395,        !- Vertex 2 Xcoordinate
    0.6273966103503481,       !- Vertex 2 Ycoordinate
    52.05,                    !- Vertex 2 Zcoordinate
    18.956204112115724,       !- Vertex 3 Xcoordinate
    0.4853589,                !- Vertex 3 Ycoordinate
    52.05,                    !- Vertex 3 Zcoordinate
    18.956204112115724,       !- Vertex 4 Xcoordinate
    0.4853589,                !- Vertex 4 Ycoordinate
    52.95;                    !- Vertex 4 Zcoordinate

FENESTRATIONSURFACE:DETAILED,
    Block Poly_87_Residential_3 Storey 17 Wall 0002 window,    !- Name
    Window,                   !- Surface Type
    HSCWZ_Residential_2005_Win,    !- Construction Name
    Block Poly_87_Residential_3 Storey 17 Wall 0002,    !- Building Surface Name
    ,                         !- Outside Boundary Condition Object
    autocalculate,            !- View Factor to Ground
    ,                         !- Frame and Divider Name
    1,                        !- Multiplier
    autocalculate,            !- Number of Vertices
    18.96160862570512,        !- Vertex 1 Xcoordinate
    0.4875596,                !- Vertex 1 Ycoordinate
    52.95,                    !- Vertex 1 Zcoordinate
    18.96160862570512,        !- Vertex 2 Xcoordinate
    0.4875596,                !- Vertex 2 Ycoordinate
    52.05,                    !- Vertex 2 Zcoordinate
    19.117224101104078,       !- Vertex 3 Xcoordinate
    5.026521704155952,        !- Vertex 3 Ycoordinate
    52.05,                    !- Vertex 3 Zcoordinate
    19.117224101104078,       !- Vertex 4 Xcoordinate
    5.026521704155952,        !- Vertex 4 Ycoordinate
    52.95;                    !- Vertex 4 Zcoordinate

FENESTRATIONSURFACE:DETAILED,
    Block Poly_87_Residential_3 Storey 17 Wall 0003 window,    !- Name
    Window,                   !- Surface Type
    HSCWZ_Residential_2005_Win,    !- Construction Name
    Block Poly_87_Residential_3 Storey 17 Wall 0003,    !- Building Surface Name
    ,                         !- Outside Boundary Condition Object
    autocalculate,            !- View Factor to Ground
    ,                         !- Frame and Divider Name
    1,                        !- Multiplier
    autocalculate,            !- Number of Vertices
    19.12595775314578,        !- Vertex 1 Xcoordinate
    5.028677947391057,        !- Vertex 1 Ycoordinate
    52.95,                    !- Vertex 1 Zcoordinate
    19.12595775314578,        !- Vertex 2 Xcoordinate
    5.028677947391057,        !- Vertex 2 Ycoordinate
    52.05,                    !- Vertex 2 Zcoordinate
    36.42017905706569,        !- Vertex 3 Xcoordinate
    4.797889820262558,        !- Vertex 3 Ycoordinate
    52.05,                    !- Vertex 3 Zcoordinate
    36.42017905706569,        !- Vertex 4 Xcoordinate
    4.797889820262558,        !- Vertex 4 Ycoordinate
    52.95;                    !- Vertex 4 Zcoordinate

FENESTRATIONSURFACE:DETAILED,
    Block Poly_87_Residential_3 Storey 17 Wall 0004 window,    !- Name
    Window,                   !- Surface Type
    HSCWZ_Residential_2005_Win,    !- Construction Name
    Block Poly_87_Residential_3 Storey 17 Wall 0004,    !- Building Surface Name
    ,                         !- Outside Boundary Condition Object
    autocalculate,            !- View Factor to Ground
    ,                         !- Frame and Divider Name
    1,                        !- Multiplier
    autocalculate,            !- Number of Vertices
    36.428803761221644,       !- Vertex 1 Xcoordinate
    4.795446499175858,        !- Vertex 1 Ycoordinate
    52.95,                    !- Vertex 1 Zcoordinate
    36.428803761221644,       !- Vertex 2 Xcoordinate
    4.795446499175858,        !- Vertex 2 Ycoordinate
    52.05,                    !- Vertex 2 Zcoordinate
    36.366741360898885,       !- Vertex 3 Xcoordinate
    0.1444791,                !- Vertex 3 Ycoordinate
    52.05,                    !- Vertex 3 Zcoordinate
    36.366741360898885,       !- Vertex 4 Xcoordinate
    0.1444791,                !- Vertex 4 Ycoordinate
    52.95;                    !- Vertex 4 Zcoordinate

FENESTRATIONSURFACE:DETAILED,
    Block Poly_87_Residential_3 Storey 17 Wall 0005 window,    !- Name
    Window,                   !- Surface Type
    HSCWZ_Residential_2005_Win,    !- Construction Name
    Block Poly_87_Residential_3 Storey 17 Wall 0005,    !- Building Surface Name
    ,                         !- Outside Boundary Condition Object
    autocalculate,            !- View Factor to Ground
    ,                         !- Frame and Divider Name
    1,                        !- Multiplier
    autocalculate,            !- Number of Vertices
    36.37203692633443,        !- Vertex 1 Xcoordinate
    0.1420802,                !- Vertex 1 Ycoordinate
    52.95,                    !- Vertex 1 Zcoordinate
    36.37203692633443,        !- Vertex 2 Xcoordinate
    0.1420802,                !- Vertex 2 Ycoordinate
    52.05,                    !- Vertex 2 Zcoordinate
    47.014639066879,          !- Vertex 3 Xcoordinate
    7.107564178295e-05,       !- Vertex 3 Ycoordinate
    52.05,                    !- Vertex 3 Zcoordinate
    47.014639066879,          !- Vertex 4 Xcoordinate
    7.107564178295e-05,       !- Vertex 4 Ycoordinate
    52.95;                    !- Vertex 4 Zcoordinate

FENESTRATIONSURFACE:DETAILED,
    Block Poly_87_Residential_3 Storey 17 Wall 0006 window,    !- Name
    Window,                   !- Surface Type
    HSCWZ_Residential_2005_Win,    !- Construction Name
    Block Poly_87_Residential_3 Storey 17 Wall 0006,    !- Building Surface Name
    ,                         !- Outside Boundary Condition Object
    autocalculate,            !- View Factor to Ground
    ,                         !- Frame and Divider Name
    1,                        !- Multiplier
    autocalculate,            !- Number of Vertices
    47.02004431362328,        !- Vertex 1 Xcoordinate
    0.002327177,              !- Vertex 1 Ycoordinate
    52.95,                    !- Vertex 1 Zcoordinate
    47.02004431362328,        !- Vertex 2 Xcoordinate
    0.002327177,              !- Vertex 2 Ycoordinate
    52.05,                    !- Vertex 2 Zcoordinate
    47.177125168153374,       !- Vertex 3 Xcoordinate
    4.652026582837338,        !- Vertex 3 Ycoordinate
    52.05,                    !- Vertex 3 Zcoordinate
    47.177125168153374,       !- Vertex 4 Xcoordinate
    4.652026582837338,        !- Vertex 4 Ycoordinate
    52.95;                    !- Vertex 4 Zcoordinate

FENESTRATIONSURFACE:DETAILED,
    Block Poly_87_Residential_3 Storey 17 Wall 0007 window,    !- Name
    Window,                   !- Surface Type
    HSCWZ_Residential_2005_Win,    !- Construction Name
    Block Poly_87_Residential_3 Storey 17 Wall 0007,    !- Building Surface Name
    ,                         !- Outside Boundary Condition Object
    autocalculate,            !- View Factor to Ground
    ,                         !- Frame and Divider Name
    1,                        !- Multiplier
    autocalculate,            !- Number of Vertices
    47.18172116732556,        !- Vertex 1 Xcoordinate
    4.654238052508561,        !- Vertex 1 Ycoordinate
    52.95,                    !- Vertex 1 Zcoordinate
    47.18172116732556,        !- Vertex 2 Xcoordinate
    4.654238052508561,        !- Vertex 2 Ycoordinate
    52.05,                    !- Vertex 2 Zcoordinate
    56.2074466588315,         !- Vertex 3 Xcoordinate
    4.42305504965526,         !- Vertex 3 Ycoordinate
    52.05,                    !- Vertex 3 Zcoordinate
    56.2074466588315,         !- Vertex 4 Xcoordinate
    4.42305504965526,         !- Vertex 4 Ycoordinate
    52.95;                    !- Vertex 4 Zcoordinate

FENESTRATIONSURFACE:DETAILED,
    Block Poly_87_Residential_3 Storey 17 Wall 0008 window,    !- Name
    Window,                   !- Surface Type
    HSCWZ_Residential_2005_Win,    !- Construction Name
    Block Poly_87_Residential_3 Storey 17 Wall 0008,    !- Building Surface Name
    ,                         !- Outside Boundary Condition Object
    autocalculate,            !- View Factor to Ground
    ,                         !- Frame and Divider Name
    1,                        !- Multiplier
    autocalculate,            !- Number of Vertices
    56.211977856201294,       !- Vertex 1 Xcoordinate
    4.427540175773902,        !- Vertex 1 Ycoordinate
    52.95,                    !- Vertex 1 Zcoordinate
    56.211977856201294,       !- Vertex 2 Xcoordinate
    4.427540175773902,        !- Vertex 2 Ycoordinate
    52.05,                    !- Vertex 2 Zcoordinate
    56.23958470955008,        !- Vertex 3 Xcoordinate
    13.620005163672612,       !- Vertex 3 Ycoordinate
    52.05,                    !- Vertex 3 Zcoordinate
    56.23958470955008,        !- Vertex 4 Xcoordinate
    13.620005163672612,       !- Vertex 4 Ycoordinate
    52.95;                    !- Vertex 4 Zcoordinate

FENESTRATIONSURFACE:DETAILED,
    Block Poly_87_Residential_3 Storey 17 Wall 0009 window,    !- Name
    Window,                   !- Surface Type
    HSCWZ_Residential_2005_Win,    !- Construction Name
    Block Poly_87_Residential_3 Storey 17 Wall 0009,    !- Building Surface Name
    ,                         !- Outside Boundary Condition Object
    autocalculate,            !- View Factor to Ground
    ,                         !- Frame and Divider Name
    1,                        !- Multiplier
    autocalculate,            !- Number of Vertices
    56.211540128609165,       !- Vertex 1 Xcoordinate
    13.625091299078194,       !- Vertex 1 Ycoordinate
    52.95,                    !- Vertex 1 Zcoordinate
    56.211540128609165,       !- Vertex 2 Xcoordinate
    13.625091299078194,       !- Vertex 2 Ycoordinate
    52.05,                    !- Vertex 2 Zcoordinate
    0.1508606,                !- Vertex 3 Xcoordinate
    14.59472485153121,        !- Vertex 3 Ycoordinate
    52.05,                    !- Vertex 3 Zcoordinate
    0.1508606,                !- Vertex 4 Xcoordinate
    14.59472485153121,        !- Vertex 4 Ycoordinate
    52.95;                    !- Vertex 4 Zcoordinate

FENESTRATIONSURFACE:DETAILED,
    Block Poly_87_Residential_3 Storey 17 Wall 0010 window,    !- Name
    Window,                   !- Surface Type
    HSCWZ_Residential_2005_Win,    !- Construction Name
    Block Poly_87_Residential_3 Storey 17 Wall 0010,    !- Building Surface Name
    ,                         !- Outside Boundary Condition Object
    autocalculate,            !- View Factor to Ground
    ,                         !- Frame and Divider Name
    1,                        !- Multiplier
    autocalculate,            !- Number of Vertices
    0.1227408,                !- Vertex 1 Xcoordinate
    14.590609954259591,       !- Vertex 1 Ycoordinate
    52.95,                    !- Vertex 1 Zcoordinate
    0.1227408,                !- Vertex 2 Xcoordinate
    14.590609954259591,       !- Vertex 2 Ycoordinate
    52.05,                    !- Vertex 2 Zcoordinate
    6.140108e-05,             !- Vertex 3 Xcoordinate
    5.39941165311332,         !- Vertex 3 Ycoordinate
    52.05,                    !- Vertex 3 Zcoordinate
    6.140108e-05,             !- Vertex 4 Xcoordinate
    5.39941165311332,         !- Vertex 4 Ycoordinate
    52.95;                    !- Vertex 4 Zcoordinate

FENESTRATIONSURFACE:DETAILED,
    Block Poly_87_Residential_3 Storey 17 Wall 0011 window,    !- Name
    Window,                   !- Surface Type
    HSCWZ_Residential_2005_Win,    !- Construction Name
    Block Poly_87_Residential_3 Storey 17 Wall 0011,    !- Building Surface Name
    ,                         !- Outside Boundary Condition Object
    autocalculate,            !- View Factor to Ground
    ,                         !- Frame and Divider Name
    1,                        !- Multiplier
    autocalculate,            !- Number of Vertices
    0.004185206,              !- Vertex 1 Xcoordinate
    5.3947555935424765,       !- Vertex 1 Ycoordinate
    52.95,                    !- Vertex 1 Zcoordinate
    0.004185206,              !- Vertex 2 Xcoordinate
    5.3947555935424765,       !- Vertex 2 Ycoordinate
    52.05,                    !- Vertex 2 Zcoordinate
    8.366226615788385,        !- Vertex 3 Xcoordinate
    5.283146872143727,        !- Vertex 3 Ycoordinate
    52.05,                    !- Vertex 3 Zcoordinate
    8.366226615788385,        !- Vertex 4 Xcoordinate
    5.283146872143727,        !- Vertex 4 Ycoordinate
    52.95;                    !- Vertex 4 Zcoordinate

FENESTRATIONSURFACE:DETAILED,
    Block Poly_87_Residential_3 Storey 17 Wall 0012 window,    !- Name
    Window,                   !- Surface Type
    HSCWZ_Residential_2005_Win,    !- Construction Name
    Block Poly_87_Residential_3 Storey 17 Wall 0012,    !- Building Surface Name
    ,                         !- Outside Boundary Condition Object
    autocalculate,            !- View Factor to Ground
    ,                         !- Frame and Divider Name
    1,                        !- Multiplier
    autocalculate,            !- Number of Vertices
    8.370380753192352,        !- Vertex 1 Xcoordinate
    5.2807632002669855,       !- Vertex 1 Ycoordinate
    52.95,                    !- Vertex 1 Zcoordinate
    8.370380753192352,        !- Vertex 2 Xcoordinate
    5.2807632002669855,       !- Vertex 2 Ycoordinate
    52.05,                    !- Vertex 2 Zcoordinate
    8.308305876439205,        !- Vertex 3 Xcoordinate
    0.6297955119360705,       !- Vertex 3 Ycoordinate
    52.05,                    !- Vertex 3 Zcoordinate
    8.308305876439205,        !- Vertex 4 Xcoordinate
    0.6297955119360705,       !- Vertex 4 Ycoordinate
    52.95;                    !- Vertex 4 Zcoordinate

FENESTRATIONSURFACE:DETAILED,
    Block Poly_87_Residential_3 Storey 18 Wall 0001 window,    !- Name
    Window,                   !- Surface Type
    HSCWZ_Residential_2005_Win,    !- Construction Name
    Block Poly_87_Residential_3 Storey 18 Wall 0001,    !- Building Surface Name
    ,                         !- Outside Boundary Condition Object
    autocalculate,            !- View Factor to Ground
    ,                         !- Frame and Divider Name
    1,                        !- Multiplier
    autocalculate,            !- Number of Vertices
    8.313601435898395,        !- Vertex 1 Xcoordinate
    0.6273966103503481,       !- Vertex 1 Ycoordinate
    55.95,                    !- Vertex 1 Zcoordinate
    8.313601435898395,        !- Vertex 2 Xcoordinate
    0.6273966103503481,       !- Vertex 2 Ycoordinate
    55.05,                    !- Vertex 2 Zcoordinate
    18.956204112115724,       !- Vertex 3 Xcoordinate
    0.4853589,                !- Vertex 3 Ycoordinate
    55.05,                    !- Vertex 3 Zcoordinate
    18.956204112115724,       !- Vertex 4 Xcoordinate
    0.4853589,                !- Vertex 4 Ycoordinate
    55.95;                    !- Vertex 4 Zcoordinate

FENESTRATIONSURFACE:DETAILED,
    Block Poly_87_Residential_3 Storey 18 Wall 0002 window,    !- Name
    Window,                   !- Surface Type
    HSCWZ_Residential_2005_Win,    !- Construction Name
    Block Poly_87_Residential_3 Storey 18 Wall 0002,    !- Building Surface Name
    ,                         !- Outside Boundary Condition Object
    autocalculate,            !- View Factor to Ground
    ,                         !- Frame and Divider Name
    1,                        !- Multiplier
    autocalculate,            !- Number of Vertices
    18.96160862570512,        !- Vertex 1 Xcoordinate
    0.4875596,                !- Vertex 1 Ycoordinate
    55.95,                    !- Vertex 1 Zcoordinate
    18.96160862570512,        !- Vertex 2 Xcoordinate
    0.4875596,                !- Vertex 2 Ycoordinate
    55.05,                    !- Vertex 2 Zcoordinate
    19.117224101104078,       !- Vertex 3 Xcoordinate
    5.026521704155952,        !- Vertex 3 Ycoordinate
    55.05,                    !- Vertex 3 Zcoordinate
    19.117224101104078,       !- Vertex 4 Xcoordinate
    5.026521704155952,        !- Vertex 4 Ycoordinate
    55.95;                    !- Vertex 4 Zcoordinate

FENESTRATIONSURFACE:DETAILED,
    Block Poly_87_Residential_3 Storey 18 Wall 0003 window,    !- Name
    Window,                   !- Surface Type
    HSCWZ_Residential_2005_Win,    !- Construction Name
    Block Poly_87_Residential_3 Storey 18 Wall 0003,    !- Building Surface Name
    ,                         !- Outside Boundary Condition Object
    autocalculate,            !- View Factor to Ground
    ,                         !- Frame and Divider Name
    1,                        !- Multiplier
    autocalculate,            !- Number of Vertices
    19.12595775314578,        !- Vertex 1 Xcoordinate
    5.028677947391057,        !- Vertex 1 Ycoordinate
    55.95,                    !- Vertex 1 Zcoordinate
    19.12595775314578,        !- Vertex 2 Xcoordinate
    5.028677947391057,        !- Vertex 2 Ycoordinate
    55.05,                    !- Vertex 2 Zcoordinate
    36.42017905706569,        !- Vertex 3 Xcoordinate
    4.797889820262558,        !- Vertex 3 Ycoordinate
    55.05,                    !- Vertex 3 Zcoordinate
    36.42017905706569,        !- Vertex 4 Xcoordinate
    4.797889820262558,        !- Vertex 4 Ycoordinate
    55.95;                    !- Vertex 4 Zcoordinate

FENESTRATIONSURFACE:DETAILED,
    Block Poly_87_Residential_3 Storey 18 Wall 0004 window,    !- Name
    Window,                   !- Surface Type
    HSCWZ_Residential_2005_Win,    !- Construction Name
    Block Poly_87_Residential_3 Storey 18 Wall 0004,    !- Building Surface Name
    ,                         !- Outside Boundary Condition Object
    autocalculate,            !- View Factor to Ground
    ,                         !- Frame and Divider Name
    1,                        !- Multiplier
    autocalculate,            !- Number of Vertices
    36.428803761221644,       !- Vertex 1 Xcoordinate
    4.795446499175858,        !- Vertex 1 Ycoordinate
    55.95,                    !- Vertex 1 Zcoordinate
    36.428803761221644,       !- Vertex 2 Xcoordinate
    4.795446499175858,        !- Vertex 2 Ycoordinate
    55.05,                    !- Vertex 2 Zcoordinate
    36.366741360898885,       !- Vertex 3 Xcoordinate
    0.1444791,                !- Vertex 3 Ycoordinate
    55.05,                    !- Vertex 3 Zcoordinate
    36.366741360898885,       !- Vertex 4 Xcoordinate
    0.1444791,                !- Vertex 4 Ycoordinate
    55.95;                    !- Vertex 4 Zcoordinate

FENESTRATIONSURFACE:DETAILED,
    Block Poly_87_Residential_3 Storey 18 Wall 0005 window,    !- Name
    Window,                   !- Surface Type
    HSCWZ_Residential_2005_Win,    !- Construction Name
    Block Poly_87_Residential_3 Storey 18 Wall 0005,    !- Building Surface Name
    ,                         !- Outside Boundary Condition Object
    autocalculate,            !- View Factor to Ground
    ,                         !- Frame and Divider Name
    1,                        !- Multiplier
    autocalculate,            !- Number of Vertices
    36.37203692633443,        !- Vertex 1 Xcoordinate
    0.1420802,                !- Vertex 1 Ycoordinate
    55.95,                    !- Vertex 1 Zcoordinate
    36.37203692633443,        !- Vertex 2 Xcoordinate
    0.1420802,                !- Vertex 2 Ycoordinate
    55.05,                    !- Vertex 2 Zcoordinate
    47.014639066879,          !- Vertex 3 Xcoordinate
    7.107564178295e-05,       !- Vertex 3 Ycoordinate
    55.05,                    !- Vertex 3 Zcoordinate
    47.014639066879,          !- Vertex 4 Xcoordinate
    7.107564178295e-05,       !- Vertex 4 Ycoordinate
    55.95;                    !- Vertex 4 Zcoordinate

FENESTRATIONSURFACE:DETAILED,
    Block Poly_87_Residential_3 Storey 18 Wall 0006 window,    !- Name
    Window,                   !- Surface Type
    HSCWZ_Residential_2005_Win,    !- Construction Name
    Block Poly_87_Residential_3 Storey 18 Wall 0006,    !- Building Surface Name
    ,                         !- Outside Boundary Condition Object
    autocalculate,            !- View Factor to Ground
    ,                         !- Frame and Divider Name
    1,                        !- Multiplier
    autocalculate,            !- Number of Vertices
    47.02004431362328,        !- Vertex 1 Xcoordinate
    0.002327177,              !- Vertex 1 Ycoordinate
    55.95,                    !- Vertex 1 Zcoordinate
    47.02004431362328,        !- Vertex 2 Xcoordinate
    0.002327177,              !- Vertex 2 Ycoordinate
    55.05,                    !- Vertex 2 Zcoordinate
    47.177125168153374,       !- Vertex 3 Xcoordinate
    4.652026582837338,        !- Vertex 3 Ycoordinate
    55.05,                    !- Vertex 3 Zcoordinate
    47.177125168153374,       !- Vertex 4 Xcoordinate
    4.652026582837338,        !- Vertex 4 Ycoordinate
    55.95;                    !- Vertex 4 Zcoordinate

FENESTRATIONSURFACE:DETAILED,
    Block Poly_87_Residential_3 Storey 18 Wall 0007 window,    !- Name
    Window,                   !- Surface Type
    HSCWZ_Residential_2005_Win,    !- Construction Name
    Block Poly_87_Residential_3 Storey 18 Wall 0007,    !- Building Surface Name
    ,                         !- Outside Boundary Condition Object
    autocalculate,            !- View Factor to Ground
    ,                         !- Frame and Divider Name
    1,                        !- Multiplier
    autocalculate,            !- Number of Vertices
    47.18172116732556,        !- Vertex 1 Xcoordinate
    4.654238052508561,        !- Vertex 1 Ycoordinate
    55.95,                    !- Vertex 1 Zcoordinate
    47.18172116732556,        !- Vertex 2 Xcoordinate
    4.654238052508561,        !- Vertex 2 Ycoordinate
    55.05,                    !- Vertex 2 Zcoordinate
    56.2074466588315,         !- Vertex 3 Xcoordinate
    4.42305504965526,         !- Vertex 3 Ycoordinate
    55.05,                    !- Vertex 3 Zcoordinate
    56.2074466588315,         !- Vertex 4 Xcoordinate
    4.42305504965526,         !- Vertex 4 Ycoordinate
    55.95;                    !- Vertex 4 Zcoordinate

FENESTRATIONSURFACE:DETAILED,
    Block Poly_87_Residential_3 Storey 18 Wall 0008 window,    !- Name
    Window,                   !- Surface Type
    HSCWZ_Residential_2005_Win,    !- Construction Name
    Block Poly_87_Residential_3 Storey 18 Wall 0008,    !- Building Surface Name
    ,                         !- Outside Boundary Condition Object
    autocalculate,            !- View Factor to Ground
    ,                         !- Frame and Divider Name
    1,                        !- Multiplier
    autocalculate,            !- Number of Vertices
    56.211977856201294,       !- Vertex 1 Xcoordinate
    4.427540175773902,        !- Vertex 1 Ycoordinate
    55.95,                    !- Vertex 1 Zcoordinate
    56.211977856201294,       !- Vertex 2 Xcoordinate
    4.427540175773902,        !- Vertex 2 Ycoordinate
    55.05,                    !- Vertex 2 Zcoordinate
    56.23958470955008,        !- Vertex 3 Xcoordinate
    13.620005163672612,       !- Vertex 3 Ycoordinate
    55.05,                    !- Vertex 3 Zcoordinate
    56.23958470955008,        !- Vertex 4 Xcoordinate
    13.620005163672612,       !- Vertex 4 Ycoordinate
    55.95;                    !- Vertex 4 Zcoordinate

FENESTRATIONSURFACE:DETAILED,
    Block Poly_87_Residential_3 Storey 18 Wall 0009 window,    !- Name
    Window,                   !- Surface Type
    HSCWZ_Residential_2005_Win,    !- Construction Name
    Block Poly_87_Residential_3 Storey 18 Wall 0009,    !- Building Surface Name
    ,                         !- Outside Boundary Condition Object
    autocalculate,            !- View Factor to Ground
    ,                         !- Frame and Divider Name
    1,                        !- Multiplier
    autocalculate,            !- Number of Vertices
    56.211540128609165,       !- Vertex 1 Xcoordinate
    13.625091299078194,       !- Vertex 1 Ycoordinate
    55.95,                    !- Vertex 1 Zcoordinate
    56.211540128609165,       !- Vertex 2 Xcoordinate
    13.625091299078194,       !- Vertex 2 Ycoordinate
    55.05,                    !- Vertex 2 Zcoordinate
    0.1508606,                !- Vertex 3 Xcoordinate
    14.59472485153121,        !- Vertex 3 Ycoordinate
    55.05,                    !- Vertex 3 Zcoordinate
    0.1508606,                !- Vertex 4 Xcoordinate
    14.59472485153121,        !- Vertex 4 Ycoordinate
    55.95;                    !- Vertex 4 Zcoordinate

FENESTRATIONSURFACE:DETAILED,
    Block Poly_87_Residential_3 Storey 18 Wall 0010 window,    !- Name
    Window,                   !- Surface Type
    HSCWZ_Residential_2005_Win,    !- Construction Name
    Block Poly_87_Residential_3 Storey 18 Wall 0010,    !- Building Surface Name
    ,                         !- Outside Boundary Condition Object
    autocalculate,            !- View Factor to Ground
    ,                         !- Frame and Divider Name
    1,                        !- Multiplier
    autocalculate,            !- Number of Vertices
    0.1227408,                !- Vertex 1 Xcoordinate
    14.590609954259591,       !- Vertex 1 Ycoordinate
    55.95,                    !- Vertex 1 Zcoordinate
    0.1227408,                !- Vertex 2 Xcoordinate
    14.590609954259591,       !- Vertex 2 Ycoordinate
    55.05,                    !- Vertex 2 Zcoordinate
    6.140108e-05,             !- Vertex 3 Xcoordinate
    5.39941165311332,         !- Vertex 3 Ycoordinate
    55.05,                    !- Vertex 3 Zcoordinate
    6.140108e-05,             !- Vertex 4 Xcoordinate
    5.39941165311332,         !- Vertex 4 Ycoordinate
    55.95;                    !- Vertex 4 Zcoordinate

FENESTRATIONSURFACE:DETAILED,
    Block Poly_87_Residential_3 Storey 18 Wall 0011 window,    !- Name
    Window,                   !- Surface Type
    HSCWZ_Residential_2005_Win,    !- Construction Name
    Block Poly_87_Residential_3 Storey 18 Wall 0011,    !- Building Surface Name
    ,                         !- Outside Boundary Condition Object
    autocalculate,            !- View Factor to Ground
    ,                         !- Frame and Divider Name
    1,                        !- Multiplier
    autocalculate,            !- Number of Vertices
    0.004185206,              !- Vertex 1 Xcoordinate
    5.3947555935424765,       !- Vertex 1 Ycoordinate
    55.95,                    !- Vertex 1 Zcoordinate
    0.004185206,              !- Vertex 2 Xcoordinate
    5.3947555935424765,       !- Vertex 2 Ycoordinate
    55.05,                    !- Vertex 2 Zcoordinate
    8.366226615788385,        !- Vertex 3 Xcoordinate
    5.283146872143727,        !- Vertex 3 Ycoordinate
    55.05,                    !- Vertex 3 Zcoordinate
    8.366226615788385,        !- Vertex 4 Xcoordinate
    5.283146872143727,        !- Vertex 4 Ycoordinate
    55.95;                    !- Vertex 4 Zcoordinate

FENESTRATIONSURFACE:DETAILED,
    Block Poly_87_Residential_3 Storey 18 Wall 0012 window,    !- Name
    Window,                   !- Surface Type
    HSCWZ_Residential_2005_Win,    !- Construction Name
    Block Poly_87_Residential_3 Storey 18 Wall 0012,    !- Building Surface Name
    ,                         !- Outside Boundary Condition Object
    autocalculate,            !- View Factor to Ground
    ,                         !- Frame and Divider Name
    1,                        !- Multiplier
    autocalculate,            !- Number of Vertices
    8.370380753192352,        !- Vertex 1 Xcoordinate
    5.2807632002669855,       !- Vertex 1 Ycoordinate
    55.95,                    !- Vertex 1 Zcoordinate
    8.370380753192352,        !- Vertex 2 Xcoordinate
    5.2807632002669855,       !- Vertex 2 Ycoordinate
    55.05,                    !- Vertex 2 Zcoordinate
    8.308305876439205,        !- Vertex 3 Xcoordinate
    0.6297955119360705,       !- Vertex 3 Ycoordinate
    55.05,                    !- Vertex 3 Zcoordinate
    8.308305876439205,        !- Vertex 4 Xcoordinate
    0.6297955119360705,       !- Vertex 4 Ycoordinate
    55.95;                    !- Vertex 4 Zcoordinate

FENESTRATIONSURFACE:DETAILED,
    Block Poly_87_Residential_3 Storey 19 Wall 0001 window,    !- Name
    Window,                   !- Surface Type
    HSCWZ_Residential_2005_Win,    !- Construction Name
    Block Poly_87_Residential_3 Storey 19 Wall 0001,    !- Building Surface Name
    ,                         !- Outside Boundary Condition Object
    autocalculate,            !- View Factor to Ground
    ,                         !- Frame and Divider Name
    1,                        !- Multiplier
    autocalculate,            !- Number of Vertices
    8.313601435898395,        !- Vertex 1 Xcoordinate
    0.6273966103503481,       !- Vertex 1 Ycoordinate
    58.95,                    !- Vertex 1 Zcoordinate
    8.313601435898395,        !- Vertex 2 Xcoordinate
    0.6273966103503481,       !- Vertex 2 Ycoordinate
    58.05,                    !- Vertex 2 Zcoordinate
    18.956204112115724,       !- Vertex 3 Xcoordinate
    0.4853589,                !- Vertex 3 Ycoordinate
    58.05,                    !- Vertex 3 Zcoordinate
    18.956204112115724,       !- Vertex 4 Xcoordinate
    0.4853589,                !- Vertex 4 Ycoordinate
    58.95;                    !- Vertex 4 Zcoordinate

FENESTRATIONSURFACE:DETAILED,
    Block Poly_87_Residential_3 Storey 19 Wall 0002 window,    !- Name
    Window,                   !- Surface Type
    HSCWZ_Residential_2005_Win,    !- Construction Name
    Block Poly_87_Residential_3 Storey 19 Wall 0002,    !- Building Surface Name
    ,                         !- Outside Boundary Condition Object
    autocalculate,            !- View Factor to Ground
    ,                         !- Frame and Divider Name
    1,                        !- Multiplier
    autocalculate,            !- Number of Vertices
    18.96160862570512,        !- Vertex 1 Xcoordinate
    0.4875596,                !- Vertex 1 Ycoordinate
    58.95,                    !- Vertex 1 Zcoordinate
    18.96160862570512,        !- Vertex 2 Xcoordinate
    0.4875596,                !- Vertex 2 Ycoordinate
    58.05,                    !- Vertex 2 Zcoordinate
    19.117224101104078,       !- Vertex 3 Xcoordinate
    5.026521704155952,        !- Vertex 3 Ycoordinate
    58.05,                    !- Vertex 3 Zcoordinate
    19.117224101104078,       !- Vertex 4 Xcoordinate
    5.026521704155952,        !- Vertex 4 Ycoordinate
    58.95;                    !- Vertex 4 Zcoordinate

FENESTRATIONSURFACE:DETAILED,
    Block Poly_87_Residential_3 Storey 19 Wall 0003 window,    !- Name
    Window,                   !- Surface Type
    HSCWZ_Residential_2005_Win,    !- Construction Name
    Block Poly_87_Residential_3 Storey 19 Wall 0003,    !- Building Surface Name
    ,                         !- Outside Boundary Condition Object
    autocalculate,            !- View Factor to Ground
    ,                         !- Frame and Divider Name
    1,                        !- Multiplier
    autocalculate,            !- Number of Vertices
    19.12595775314578,        !- Vertex 1 Xcoordinate
    5.028677947391057,        !- Vertex 1 Ycoordinate
    58.95,                    !- Vertex 1 Zcoordinate
    19.12595775314578,        !- Vertex 2 Xcoordinate
    5.028677947391057,        !- Vertex 2 Ycoordinate
    58.05,                    !- Vertex 2 Zcoordinate
    36.42017905706569,        !- Vertex 3 Xcoordinate
    4.797889820262558,        !- Vertex 3 Ycoordinate
    58.05,                    !- Vertex 3 Zcoordinate
    36.42017905706569,        !- Vertex 4 Xcoordinate
    4.797889820262558,        !- Vertex 4 Ycoordinate
    58.95;                    !- Vertex 4 Zcoordinate

FENESTRATIONSURFACE:DETAILED,
    Block Poly_87_Residential_3 Storey 19 Wall 0004 window,    !- Name
    Window,                   !- Surface Type
    HSCWZ_Residential_2005_Win,    !- Construction Name
    Block Poly_87_Residential_3 Storey 19 Wall 0004,    !- Building Surface Name
    ,                         !- Outside Boundary Condition Object
    autocalculate,            !- View Factor to Ground
    ,                         !- Frame and Divider Name
    1,                        !- Multiplier
    autocalculate,            !- Number of Vertices
    36.428803761221644,       !- Vertex 1 Xcoordinate
    4.795446499175858,        !- Vertex 1 Ycoordinate
    58.95,                    !- Vertex 1 Zcoordinate
    36.428803761221644,       !- Vertex 2 Xcoordinate
    4.795446499175858,        !- Vertex 2 Ycoordinate
    58.05,                    !- Vertex 2 Zcoordinate
    36.366741360898885,       !- Vertex 3 Xcoordinate
    0.1444791,                !- Vertex 3 Ycoordinate
    58.05,                    !- Vertex 3 Zcoordinate
    36.366741360898885,       !- Vertex 4 Xcoordinate
    0.1444791,                !- Vertex 4 Ycoordinate
    58.95;                    !- Vertex 4 Zcoordinate

FENESTRATIONSURFACE:DETAILED,
    Block Poly_87_Residential_3 Storey 19 Wall 0005 window,    !- Name
    Window,                   !- Surface Type
    HSCWZ_Residential_2005_Win,    !- Construction Name
    Block Poly_87_Residential_3 Storey 19 Wall 0005,    !- Building Surface Name
    ,                         !- Outside Boundary Condition Object
    autocalculate,            !- View Factor to Ground
    ,                         !- Frame and Divider Name
    1,                        !- Multiplier
    autocalculate,            !- Number of Vertices
    36.37203692633443,        !- Vertex 1 Xcoordinate
    0.1420802,                !- Vertex 1 Ycoordinate
    58.95,                    !- Vertex 1 Zcoordinate
    36.37203692633443,        !- Vertex 2 Xcoordinate
    0.1420802,                !- Vertex 2 Ycoordinate
    58.05,                    !- Vertex 2 Zcoordinate
    47.014639066879,          !- Vertex 3 Xcoordinate
    7.107564178295e-05,       !- Vertex 3 Ycoordinate
    58.05,                    !- Vertex 3 Zcoordinate
    47.014639066879,          !- Vertex 4 Xcoordinate
    7.107564178295e-05,       !- Vertex 4 Ycoordinate
    58.95;                    !- Vertex 4 Zcoordinate

FENESTRATIONSURFACE:DETAILED,
    Block Poly_87_Residential_3 Storey 19 Wall 0006 window,    !- Name
    Window,                   !- Surface Type
    HSCWZ_Residential_2005_Win,    !- Construction Name
    Block Poly_87_Residential_3 Storey 19 Wall 0006,    !- Building Surface Name
    ,                         !- Outside Boundary Condition Object
    autocalculate,            !- View Factor to Ground
    ,                         !- Frame and Divider Name
    1,                        !- Multiplier
    autocalculate,            !- Number of Vertices
    47.02004431362328,        !- Vertex 1 Xcoordinate
    0.002327177,              !- Vertex 1 Ycoordinate
    58.95,                    !- Vertex 1 Zcoordinate
    47.02004431362328,        !- Vertex 2 Xcoordinate
    0.002327177,              !- Vertex 2 Ycoordinate
    58.05,                    !- Vertex 2 Zcoordinate
    47.177125168153374,       !- Vertex 3 Xcoordinate
    4.652026582837338,        !- Vertex 3 Ycoordinate
    58.05,                    !- Vertex 3 Zcoordinate
    47.177125168153374,       !- Vertex 4 Xcoordinate
    4.652026582837338,        !- Vertex 4 Ycoordinate
    58.95;                    !- Vertex 4 Zcoordinate

FENESTRATIONSURFACE:DETAILED,
    Block Poly_87_Residential_3 Storey 19 Wall 0007 window,    !- Name
    Window,                   !- Surface Type
    HSCWZ_Residential_2005_Win,    !- Construction Name
    Block Poly_87_Residential_3 Storey 19 Wall 0007,    !- Building Surface Name
    ,                         !- Outside Boundary Condition Object
    autocalculate,            !- View Factor to Ground
    ,                         !- Frame and Divider Name
    1,                        !- Multiplier
    autocalculate,            !- Number of Vertices
    47.18172116732556,        !- Vertex 1 Xcoordinate
    4.654238052508561,        !- Vertex 1 Ycoordinate
    58.95,                    !- Vertex 1 Zcoordinate
    47.18172116732556,        !- Vertex 2 Xcoordinate
    4.654238052508561,        !- Vertex 2 Ycoordinate
    58.05,                    !- Vertex 2 Zcoordinate
    56.2074466588315,         !- Vertex 3 Xcoordinate
    4.42305504965526,         !- Vertex 3 Ycoordinate
    58.05,                    !- Vertex 3 Zcoordinate
    56.2074466588315,         !- Vertex 4 Xcoordinate
    4.42305504965526,         !- Vertex 4 Ycoordinate
    58.95;                    !- Vertex 4 Zcoordinate

FENESTRATIONSURFACE:DETAILED,
    Block Poly_87_Residential_3 Storey 19 Wall 0008 window,    !- Name
    Window,                   !- Surface Type
    HSCWZ_Residential_2005_Win,    !- Construction Name
    Block Poly_87_Residential_3 Storey 19 Wall 0008,    !- Building Surface Name
    ,                         !- Outside Boundary Condition Object
    autocalculate,            !- View Factor to Ground
    ,                         !- Frame and Divider Name
    1,                        !- Multiplier
    autocalculate,            !- Number of Vertices
    56.211977856201294,       !- Vertex 1 Xcoordinate
    4.427540175773902,        !- Vertex 1 Ycoordinate
    58.95,                    !- Vertex 1 Zcoordinate
    56.211977856201294,       !- Vertex 2 Xcoordinate
    4.427540175773902,        !- Vertex 2 Ycoordinate
    58.05,                    !- Vertex 2 Zcoordinate
    56.23958470955008,        !- Vertex 3 Xcoordinate
    13.620005163672612,       !- Vertex 3 Ycoordinate
    58.05,                    !- Vertex 3 Zcoordinate
    56.23958470955008,        !- Vertex 4 Xcoordinate
    13.620005163672612,       !- Vertex 4 Ycoordinate
    58.95;                    !- Vertex 4 Zcoordinate

FENESTRATIONSURFACE:DETAILED,
    Block Poly_87_Residential_3 Storey 19 Wall 0009 window,    !- Name
    Window,                   !- Surface Type
    HSCWZ_Residential_2005_Win,    !- Construction Name
    Block Poly_87_Residential_3 Storey 19 Wall 0009,    !- Building Surface Name
    ,                         !- Outside Boundary Condition Object
    autocalculate,            !- View Factor to Ground
    ,                         !- Frame and Divider Name
    1,                        !- Multiplier
    autocalculate,            !- Number of Vertices
    56.211540128609165,       !- Vertex 1 Xcoordinate
    13.625091299078194,       !- Vertex 1 Ycoordinate
    58.95,                    !- Vertex 1 Zcoordinate
    56.211540128609165,       !- Vertex 2 Xcoordinate
    13.625091299078194,       !- Vertex 2 Ycoordinate
    58.05,                    !- Vertex 2 Zcoordinate
    0.1508606,                !- Vertex 3 Xcoordinate
    14.59472485153121,        !- Vertex 3 Ycoordinate
    58.05,                    !- Vertex 3 Zcoordinate
    0.1508606,                !- Vertex 4 Xcoordinate
    14.59472485153121,        !- Vertex 4 Ycoordinate
    58.95;                    !- Vertex 4 Zcoordinate

FENESTRATIONSURFACE:DETAILED,
    Block Poly_87_Residential_3 Storey 19 Wall 0010 window,    !- Name
    Window,                   !- Surface Type
    HSCWZ_Residential_2005_Win,    !- Construction Name
    Block Poly_87_Residential_3 Storey 19 Wall 0010,    !- Building Surface Name
    ,                         !- Outside Boundary Condition Object
    autocalculate,            !- View Factor to Ground
    ,                         !- Frame and Divider Name
    1,                        !- Multiplier
    autocalculate,            !- Number of Vertices
    0.1227408,                !- Vertex 1 Xcoordinate
    14.590609954259591,       !- Vertex 1 Ycoordinate
    58.95,                    !- Vertex 1 Zcoordinate
    0.1227408,                !- Vertex 2 Xcoordinate
    14.590609954259591,       !- Vertex 2 Ycoordinate
    58.05,                    !- Vertex 2 Zcoordinate
    6.140108e-05,             !- Vertex 3 Xcoordinate
    5.39941165311332,         !- Vertex 3 Ycoordinate
    58.05,                    !- Vertex 3 Zcoordinate
    6.140108e-05,             !- Vertex 4 Xcoordinate
    5.39941165311332,         !- Vertex 4 Ycoordinate
    58.95;                    !- Vertex 4 Zcoordinate

FENESTRATIONSURFACE:DETAILED,
    Block Poly_87_Residential_3 Storey 19 Wall 0011 window,    !- Name
    Window,                   !- Surface Type
    HSCWZ_Residential_2005_Win,    !- Construction Name
    Block Poly_87_Residential_3 Storey 19 Wall 0011,    !- Building Surface Name
    ,                         !- Outside Boundary Condition Object
    autocalculate,            !- View Factor to Ground
    ,                         !- Frame and Divider Name
    1,                        !- Multiplier
    autocalculate,            !- Number of Vertices
    0.004185206,              !- Vertex 1 Xcoordinate
    5.3947555935424765,       !- Vertex 1 Ycoordinate
    58.95,                    !- Vertex 1 Zcoordinate
    0.004185206,              !- Vertex 2 Xcoordinate
    5.3947555935424765,       !- Vertex 2 Ycoordinate
    58.05,                    !- Vertex 2 Zcoordinate
    8.366226615788385,        !- Vertex 3 Xcoordinate
    5.283146872143727,        !- Vertex 3 Ycoordinate
    58.05,                    !- Vertex 3 Zcoordinate
    8.366226615788385,        !- Vertex 4 Xcoordinate
    5.283146872143727,        !- Vertex 4 Ycoordinate
    58.95;                    !- Vertex 4 Zcoordinate

FENESTRATIONSURFACE:DETAILED,
    Block Poly_87_Residential_3 Storey 19 Wall 0012 window,    !- Name
    Window,                   !- Surface Type
    HSCWZ_Residential_2005_Win,    !- Construction Name
    Block Poly_87_Residential_3 Storey 19 Wall 0012,    !- Building Surface Name
    ,                         !- Outside Boundary Condition Object
    autocalculate,            !- View Factor to Ground
    ,                         !- Frame and Divider Name
    1,                        !- Multiplier
    autocalculate,            !- Number of Vertices
    8.370380753192352,        !- Vertex 1 Xcoordinate
    5.2807632002669855,       !- Vertex 1 Ycoordinate
    58.95,                    !- Vertex 1 Zcoordinate
    8.370380753192352,        !- Vertex 2 Xcoordinate
    5.2807632002669855,       !- Vertex 2 Ycoordinate
    58.05,                    !- Vertex 2 Zcoordinate
    8.308305876439205,        !- Vertex 3 Xcoordinate
    0.6297955119360705,       !- Vertex 3 Ycoordinate
    58.05,                    !- Vertex 3 Zcoordinate
    8.308305876439205,        !- Vertex 4 Xcoordinate
    0.6297955119360705,       !- Vertex 4 Ycoordinate
    58.95;                    !- Vertex 4 Zcoordinate

FENESTRATIONSURFACE:DETAILED,
    Block Poly_87_Residential_3 Storey 20 Wall 0001 window,    !- Name
    Window,                   !- Surface Type
    HSCWZ_Residential_2005_Win,    !- Construction Name
    Block Poly_87_Residential_3 Storey 20 Wall 0001,    !- Building Surface Name
    ,                         !- Outside Boundary Condition Object
    autocalculate,            !- View Factor to Ground
    ,                         !- Frame and Divider Name
    1,                        !- Multiplier
    autocalculate,            !- Number of Vertices
    8.313601435898395,        !- Vertex 1 Xcoordinate
    0.6273966103503481,       !- Vertex 1 Ycoordinate
    61.95,                    !- Vertex 1 Zcoordinate
    8.313601435898395,        !- Vertex 2 Xcoordinate
    0.6273966103503481,       !- Vertex 2 Ycoordinate
    61.05,                    !- Vertex 2 Zcoordinate
    18.956204112115724,       !- Vertex 3 Xcoordinate
    0.4853589,                !- Vertex 3 Ycoordinate
    61.05,                    !- Vertex 3 Zcoordinate
    18.956204112115724,       !- Vertex 4 Xcoordinate
    0.4853589,                !- Vertex 4 Ycoordinate
    61.95;                    !- Vertex 4 Zcoordinate

FENESTRATIONSURFACE:DETAILED,
    Block Poly_87_Residential_3 Storey 20 Wall 0002 window,    !- Name
    Window,                   !- Surface Type
    HSCWZ_Residential_2005_Win,    !- Construction Name
    Block Poly_87_Residential_3 Storey 20 Wall 0002,    !- Building Surface Name
    ,                         !- Outside Boundary Condition Object
    autocalculate,            !- View Factor to Ground
    ,                         !- Frame and Divider Name
    1,                        !- Multiplier
    autocalculate,            !- Number of Vertices
    18.96160862570512,        !- Vertex 1 Xcoordinate
    0.4875596,                !- Vertex 1 Ycoordinate
    61.95,                    !- Vertex 1 Zcoordinate
    18.96160862570512,        !- Vertex 2 Xcoordinate
    0.4875596,                !- Vertex 2 Ycoordinate
    61.05,                    !- Vertex 2 Zcoordinate
    19.117224101104078,       !- Vertex 3 Xcoordinate
    5.026521704155952,        !- Vertex 3 Ycoordinate
    61.05,                    !- Vertex 3 Zcoordinate
    19.117224101104078,       !- Vertex 4 Xcoordinate
    5.026521704155952,        !- Vertex 4 Ycoordinate
    61.95;                    !- Vertex 4 Zcoordinate

FENESTRATIONSURFACE:DETAILED,
    Block Poly_87_Residential_3 Storey 20 Wall 0003 window,    !- Name
    Window,                   !- Surface Type
    HSCWZ_Residential_2005_Win,    !- Construction Name
    Block Poly_87_Residential_3 Storey 20 Wall 0003,    !- Building Surface Name
    ,                         !- Outside Boundary Condition Object
    autocalculate,            !- View Factor to Ground
    ,                         !- Frame and Divider Name
    1,                        !- Multiplier
    autocalculate,            !- Number of Vertices
    19.12595775314578,        !- Vertex 1 Xcoordinate
    5.028677947391057,        !- Vertex 1 Ycoordinate
    61.95,                    !- Vertex 1 Zcoordinate
    19.12595775314578,        !- Vertex 2 Xcoordinate
    5.028677947391057,        !- Vertex 2 Ycoordinate
    61.05,                    !- Vertex 2 Zcoordinate
    36.42017905706569,        !- Vertex 3 Xcoordinate
    4.797889820262558,        !- Vertex 3 Ycoordinate
    61.05,                    !- Vertex 3 Zcoordinate
    36.42017905706569,        !- Vertex 4 Xcoordinate
    4.797889820262558,        !- Vertex 4 Ycoordinate
    61.95;                    !- Vertex 4 Zcoordinate

FENESTRATIONSURFACE:DETAILED,
    Block Poly_87_Residential_3 Storey 20 Wall 0004 window,    !- Name
    Window,                   !- Surface Type
    HSCWZ_Residential_2005_Win,    !- Construction Name
    Block Poly_87_Residential_3 Storey 20 Wall 0004,    !- Building Surface Name
    ,                         !- Outside Boundary Condition Object
    autocalculate,            !- View Factor to Ground
    ,                         !- Frame and Divider Name
    1,                        !- Multiplier
    autocalculate,            !- Number of Vertices
    36.428803761221644,       !- Vertex 1 Xcoordinate
    4.795446499175858,        !- Vertex 1 Ycoordinate
    61.95,                    !- Vertex 1 Zcoordinate
    36.428803761221644,       !- Vertex 2 Xcoordinate
    4.795446499175858,        !- Vertex 2 Ycoordinate
    61.05,                    !- Vertex 2 Zcoordinate
    36.366741360898885,       !- Vertex 3 Xcoordinate
    0.1444791,                !- Vertex 3 Ycoordinate
    61.05,                    !- Vertex 3 Zcoordinate
    36.366741360898885,       !- Vertex 4 Xcoordinate
    0.1444791,                !- Vertex 4 Ycoordinate
    61.95;                    !- Vertex 4 Zcoordinate

FENESTRATIONSURFACE:DETAILED,
    Block Poly_87_Residential_3 Storey 20 Wall 0005 window,    !- Name
    Window,                   !- Surface Type
    HSCWZ_Residential_2005_Win,    !- Construction Name
    Block Poly_87_Residential_3 Storey 20 Wall 0005,    !- Building Surface Name
    ,                         !- Outside Boundary Condition Object
    autocalculate,            !- View Factor to Ground
    ,                         !- Frame and Divider Name
    1,                        !- Multiplier
    autocalculate,            !- Number of Vertices
    36.37203692633443,        !- Vertex 1 Xcoordinate
    0.1420802,                !- Vertex 1 Ycoordinate
    61.95,                    !- Vertex 1 Zcoordinate
    36.37203692633443,        !- Vertex 2 Xcoordinate
    0.1420802,                !- Vertex 2 Ycoordinate
    61.05,                    !- Vertex 2 Zcoordinate
    47.014639066879,          !- Vertex 3 Xcoordinate
    7.107564178295e-05,       !- Vertex 3 Ycoordinate
    61.05,                    !- Vertex 3 Zcoordinate
    47.014639066879,          !- Vertex 4 Xcoordinate
    7.107564178295e-05,       !- Vertex 4 Ycoordinate
    61.95;                    !- Vertex 4 Zcoordinate

FENESTRATIONSURFACE:DETAILED,
    Block Poly_87_Residential_3 Storey 20 Wall 0006 window,    !- Name
    Window,                   !- Surface Type
    HSCWZ_Residential_2005_Win,    !- Construction Name
    Block Poly_87_Residential_3 Storey 20 Wall 0006,    !- Building Surface Name
    ,                         !- Outside Boundary Condition Object
    autocalculate,            !- View Factor to Ground
    ,                         !- Frame and Divider Name
    1,                        !- Multiplier
    autocalculate,            !- Number of Vertices
    47.02004431362328,        !- Vertex 1 Xcoordinate
    0.002327177,              !- Vertex 1 Ycoordinate
    61.95,                    !- Vertex 1 Zcoordinate
    47.02004431362328,        !- Vertex 2 Xcoordinate
    0.002327177,              !- Vertex 2 Ycoordinate
    61.05,                    !- Vertex 2 Zcoordinate
    47.177125168153374,       !- Vertex 3 Xcoordinate
    4.652026582837338,        !- Vertex 3 Ycoordinate
    61.05,                    !- Vertex 3 Zcoordinate
    47.177125168153374,       !- Vertex 4 Xcoordinate
    4.652026582837338,        !- Vertex 4 Ycoordinate
    61.95;                    !- Vertex 4 Zcoordinate

FENESTRATIONSURFACE:DETAILED,
    Block Poly_87_Residential_3 Storey 20 Wall 0007 window,    !- Name
    Window,                   !- Surface Type
    HSCWZ_Residential_2005_Win,    !- Construction Name
    Block Poly_87_Residential_3 Storey 20 Wall 0007,    !- Building Surface Name
    ,                         !- Outside Boundary Condition Object
    autocalculate,            !- View Factor to Ground
    ,                         !- Frame and Divider Name
    1,                        !- Multiplier
    autocalculate,            !- Number of Vertices
    47.18172116732556,        !- Vertex 1 Xcoordinate
    4.654238052508561,        !- Vertex 1 Ycoordinate
    61.95,                    !- Vertex 1 Zcoordinate
    47.18172116732556,        !- Vertex 2 Xcoordinate
    4.654238052508561,        !- Vertex 2 Ycoordinate
    61.05,                    !- Vertex 2 Zcoordinate
    56.2074466588315,         !- Vertex 3 Xcoordinate
    4.42305504965526,         !- Vertex 3 Ycoordinate
    61.05,                    !- Vertex 3 Zcoordinate
    56.2074466588315,         !- Vertex 4 Xcoordinate
    4.42305504965526,         !- Vertex 4 Ycoordinate
    61.95;                    !- Vertex 4 Zcoordinate

FENESTRATIONSURFACE:DETAILED,
    Block Poly_87_Residential_3 Storey 20 Wall 0008 window,    !- Name
    Window,                   !- Surface Type
    HSCWZ_Residential_2005_Win,    !- Construction Name
    Block Poly_87_Residential_3 Storey 20 Wall 0008,    !- Building Surface Name
    ,                         !- Outside Boundary Condition Object
    autocalculate,            !- View Factor to Ground
    ,                         !- Frame and Divider Name
    1,                        !- Multiplier
    autocalculate,            !- Number of Vertices
    56.211977856201294,       !- Vertex 1 Xcoordinate
    4.427540175773902,        !- Vertex 1 Ycoordinate
    61.95,                    !- Vertex 1 Zcoordinate
    56.211977856201294,       !- Vertex 2 Xcoordinate
    4.427540175773902,        !- Vertex 2 Ycoordinate
    61.05,                    !- Vertex 2 Zcoordinate
    56.23958470955008,        !- Vertex 3 Xcoordinate
    13.620005163672612,       !- Vertex 3 Ycoordinate
    61.05,                    !- Vertex 3 Zcoordinate
    56.23958470955008,        !- Vertex 4 Xcoordinate
    13.620005163672612,       !- Vertex 4 Ycoordinate
    61.95;                    !- Vertex 4 Zcoordinate

FENESTRATIONSURFACE:DETAILED,
    Block Poly_87_Residential_3 Storey 20 Wall 0009 window,    !- Name
    Window,                   !- Surface Type
    HSCWZ_Residential_2005_Win,    !- Construction Name
    Block Poly_87_Residential_3 Storey 20 Wall 0009,    !- Building Surface Name
    ,                         !- Outside Boundary Condition Object
    autocalculate,            !- View Factor to Ground
    ,                         !- Frame and Divider Name
    1,                        !- Multiplier
    autocalculate,            !- Number of Vertices
    56.211540128609165,       !- Vertex 1 Xcoordinate
    13.625091299078194,       !- Vertex 1 Ycoordinate
    61.95,                    !- Vertex 1 Zcoordinate
    56.211540128609165,       !- Vertex 2 Xcoordinate
    13.625091299078194,       !- Vertex 2 Ycoordinate
    61.05,                    !- Vertex 2 Zcoordinate
    0.1508606,                !- Vertex 3 Xcoordinate
    14.59472485153121,        !- Vertex 3 Ycoordinate
    61.05,                    !- Vertex 3 Zcoordinate
    0.1508606,                !- Vertex 4 Xcoordinate
    14.59472485153121,        !- Vertex 4 Ycoordinate
    61.95;                    !- Vertex 4 Zcoordinate

FENESTRATIONSURFACE:DETAILED,
    Block Poly_87_Residential_3 Storey 20 Wall 0010 window,    !- Name
    Window,                   !- Surface Type
    HSCWZ_Residential_2005_Win,    !- Construction Name
    Block Poly_87_Residential_3 Storey 20 Wall 0010,    !- Building Surface Name
    ,                         !- Outside Boundary Condition Object
    autocalculate,            !- View Factor to Ground
    ,                         !- Frame and Divider Name
    1,                        !- Multiplier
    autocalculate,            !- Number of Vertices
    0.1227408,                !- Vertex 1 Xcoordinate
    14.590609954259591,       !- Vertex 1 Ycoordinate
    61.95,                    !- Vertex 1 Zcoordinate
    0.1227408,                !- Vertex 2 Xcoordinate
    14.590609954259591,       !- Vertex 2 Ycoordinate
    61.05,                    !- Vertex 2 Zcoordinate
    6.140108e-05,             !- Vertex 3 Xcoordinate
    5.39941165311332,         !- Vertex 3 Ycoordinate
    61.05,                    !- Vertex 3 Zcoordinate
    6.140108e-05,             !- Vertex 4 Xcoordinate
    5.39941165311332,         !- Vertex 4 Ycoordinate
    61.95;                    !- Vertex 4 Zcoordinate

FENESTRATIONSURFACE:DETAILED,
    Block Poly_87_Residential_3 Storey 20 Wall 0011 window,    !- Name
    Window,                   !- Surface Type
    HSCWZ_Residential_2005_Win,    !- Construction Name
    Block Poly_87_Residential_3 Storey 20 Wall 0011,    !- Building Surface Name
    ,                         !- Outside Boundary Condition Object
    autocalculate,            !- View Factor to Ground
    ,                         !- Frame and Divider Name
    1,                        !- Multiplier
    autocalculate,            !- Number of Vertices
    0.004185206,              !- Vertex 1 Xcoordinate
    5.3947555935424765,       !- Vertex 1 Ycoordinate
    61.95,                    !- Vertex 1 Zcoordinate
    0.004185206,              !- Vertex 2 Xcoordinate
    5.3947555935424765,       !- Vertex 2 Ycoordinate
    61.05,                    !- Vertex 2 Zcoordinate
    8.366226615788385,        !- Vertex 3 Xcoordinate
    5.283146872143727,        !- Vertex 3 Ycoordinate
    61.05,                    !- Vertex 3 Zcoordinate
    8.366226615788385,        !- Vertex 4 Xcoordinate
    5.283146872143727,        !- Vertex 4 Ycoordinate
    61.95;                    !- Vertex 4 Zcoordinate

FENESTRATIONSURFACE:DETAILED,
    Block Poly_87_Residential_3 Storey 20 Wall 0012 window,    !- Name
    Window,                   !- Surface Type
    HSCWZ_Residential_2005_Win,    !- Construction Name
    Block Poly_87_Residential_3 Storey 20 Wall 0012,    !- Building Surface Name
    ,                         !- Outside Boundary Condition Object
    autocalculate,            !- View Factor to Ground
    ,                         !- Frame and Divider Name
    1,                        !- Multiplier
    autocalculate,            !- Number of Vertices
    8.370380753192352,        !- Vertex 1 Xcoordinate
    5.2807632002669855,       !- Vertex 1 Ycoordinate
    61.95,                    !- Vertex 1 Zcoordinate
    8.370380753192352,        !- Vertex 2 Xcoordinate
    5.2807632002669855,       !- Vertex 2 Ycoordinate
    61.05,                    !- Vertex 2 Zcoordinate
    8.308305876439205,        !- Vertex 3 Xcoordinate
    0.6297955119360705,       !- Vertex 3 Ycoordinate
    61.05,                    !- Vertex 3 Zcoordinate
    8.308305876439205,        !- Vertex 4 Xcoordinate
    0.6297955119360705,       !- Vertex 4 Ycoordinate
    61.95;                    !- Vertex 4 Zcoordinate

FENESTRATIONSURFACE:DETAILED,
    Block Poly_87_Residential_3 Storey 21 Wall 0001 window,    !- Name
    Window,                   !- Surface Type
    HSCWZ_Residential_2005_Win,    !- Construction Name
    Block Poly_87_Residential_3 Storey 21 Wall 0001,    !- Building Surface Name
    ,                         !- Outside Boundary Condition Object
    autocalculate,            !- View Factor to Ground
    ,                         !- Frame and Divider Name
    1,                        !- Multiplier
    autocalculate,            !- Number of Vertices
    8.313601435898395,        !- Vertex 1 Xcoordinate
    0.6273966103503481,       !- Vertex 1 Ycoordinate
    64.95,                    !- Vertex 1 Zcoordinate
    8.313601435898395,        !- Vertex 2 Xcoordinate
    0.6273966103503481,       !- Vertex 2 Ycoordinate
    64.05,                    !- Vertex 2 Zcoordinate
    18.956204112115724,       !- Vertex 3 Xcoordinate
    0.4853589,                !- Vertex 3 Ycoordinate
    64.05,                    !- Vertex 3 Zcoordinate
    18.956204112115724,       !- Vertex 4 Xcoordinate
    0.4853589,                !- Vertex 4 Ycoordinate
    64.95;                    !- Vertex 4 Zcoordinate

FENESTRATIONSURFACE:DETAILED,
    Block Poly_87_Residential_3 Storey 21 Wall 0002 window,    !- Name
    Window,                   !- Surface Type
    HSCWZ_Residential_2005_Win,    !- Construction Name
    Block Poly_87_Residential_3 Storey 21 Wall 0002,    !- Building Surface Name
    ,                         !- Outside Boundary Condition Object
    autocalculate,            !- View Factor to Ground
    ,                         !- Frame and Divider Name
    1,                        !- Multiplier
    autocalculate,            !- Number of Vertices
    18.96160862570512,        !- Vertex 1 Xcoordinate
    0.4875596,                !- Vertex 1 Ycoordinate
    64.95,                    !- Vertex 1 Zcoordinate
    18.96160862570512,        !- Vertex 2 Xcoordinate
    0.4875596,                !- Vertex 2 Ycoordinate
    64.05,                    !- Vertex 2 Zcoordinate
    19.117224101104078,       !- Vertex 3 Xcoordinate
    5.026521704155952,        !- Vertex 3 Ycoordinate
    64.05,                    !- Vertex 3 Zcoordinate
    19.117224101104078,       !- Vertex 4 Xcoordinate
    5.026521704155952,        !- Vertex 4 Ycoordinate
    64.95;                    !- Vertex 4 Zcoordinate

FENESTRATIONSURFACE:DETAILED,
    Block Poly_87_Residential_3 Storey 21 Wall 0003 window,    !- Name
    Window,                   !- Surface Type
    HSCWZ_Residential_2005_Win,    !- Construction Name
    Block Poly_87_Residential_3 Storey 21 Wall 0003,    !- Building Surface Name
    ,                         !- Outside Boundary Condition Object
    autocalculate,            !- View Factor to Ground
    ,                         !- Frame and Divider Name
    1,                        !- Multiplier
    autocalculate,            !- Number of Vertices
    19.12595775314578,        !- Vertex 1 Xcoordinate
    5.028677947391057,        !- Vertex 1 Ycoordinate
    64.95,                    !- Vertex 1 Zcoordinate
    19.12595775314578,        !- Vertex 2 Xcoordinate
    5.028677947391057,        !- Vertex 2 Ycoordinate
    64.05,                    !- Vertex 2 Zcoordinate
    36.42017905706569,        !- Vertex 3 Xcoordinate
    4.797889820262558,        !- Vertex 3 Ycoordinate
    64.05,                    !- Vertex 3 Zcoordinate
    36.42017905706569,        !- Vertex 4 Xcoordinate
    4.797889820262558,        !- Vertex 4 Ycoordinate
    64.95;                    !- Vertex 4 Zcoordinate

FENESTRATIONSURFACE:DETAILED,
    Block Poly_87_Residential_3 Storey 21 Wall 0004 window,    !- Name
    Window,                   !- Surface Type
    HSCWZ_Residential_2005_Win,    !- Construction Name
    Block Poly_87_Residential_3 Storey 21 Wall 0004,    !- Building Surface Name
    ,                         !- Outside Boundary Condition Object
    autocalculate,            !- View Factor to Ground
    ,                         !- Frame and Divider Name
    1,                        !- Multiplier
    autocalculate,            !- Number of Vertices
    36.428803761221644,       !- Vertex 1 Xcoordinate
    4.795446499175858,        !- Vertex 1 Ycoordinate
    64.95,                    !- Vertex 1 Zcoordinate
    36.428803761221644,       !- Vertex 2 Xcoordinate
    4.795446499175858,        !- Vertex 2 Ycoordinate
    64.05,                    !- Vertex 2 Zcoordinate
    36.366741360898885,       !- Vertex 3 Xcoordinate
    0.1444791,                !- Vertex 3 Ycoordinate
    64.05,                    !- Vertex 3 Zcoordinate
    36.366741360898885,       !- Vertex 4 Xcoordinate
    0.1444791,                !- Vertex 4 Ycoordinate
    64.95;                    !- Vertex 4 Zcoordinate

FENESTRATIONSURFACE:DETAILED,
    Block Poly_87_Residential_3 Storey 21 Wall 0005 window,    !- Name
    Window,                   !- Surface Type
    HSCWZ_Residential_2005_Win,    !- Construction Name
    Block Poly_87_Residential_3 Storey 21 Wall 0005,    !- Building Surface Name
    ,                         !- Outside Boundary Condition Object
    autocalculate,            !- View Factor to Ground
    ,                         !- Frame and Divider Name
    1,                        !- Multiplier
    autocalculate,            !- Number of Vertices
    36.37203692633443,        !- Vertex 1 Xcoordinate
    0.1420802,                !- Vertex 1 Ycoordinate
    64.95,                    !- Vertex 1 Zcoordinate
    36.37203692633443,        !- Vertex 2 Xcoordinate
    0.1420802,                !- Vertex 2 Ycoordinate
    64.05,                    !- Vertex 2 Zcoordinate
    47.014639066879,          !- Vertex 3 Xcoordinate
    7.107564178295e-05,       !- Vertex 3 Ycoordinate
    64.05,                    !- Vertex 3 Zcoordinate
    47.014639066879,          !- Vertex 4 Xcoordinate
    7.107564178295e-05,       !- Vertex 4 Ycoordinate
    64.95;                    !- Vertex 4 Zcoordinate

FENESTRATIONSURFACE:DETAILED,
    Block Poly_87_Residential_3 Storey 21 Wall 0006 window,    !- Name
    Window,                   !- Surface Type
    HSCWZ_Residential_2005_Win,    !- Construction Name
    Block Poly_87_Residential_3 Storey 21 Wall 0006,    !- Building Surface Name
    ,                         !- Outside Boundary Condition Object
    autocalculate,            !- View Factor to Ground
    ,                         !- Frame and Divider Name
    1,                        !- Multiplier
    autocalculate,            !- Number of Vertices
    47.02004431362328,        !- Vertex 1 Xcoordinate
    0.002327177,              !- Vertex 1 Ycoordinate
    64.95,                    !- Vertex 1 Zcoordinate
    47.02004431362328,        !- Vertex 2 Xcoordinate
    0.002327177,              !- Vertex 2 Ycoordinate
    64.05,                    !- Vertex 2 Zcoordinate
    47.177125168153374,       !- Vertex 3 Xcoordinate
    4.652026582837338,        !- Vertex 3 Ycoordinate
    64.05,                    !- Vertex 3 Zcoordinate
    47.177125168153374,       !- Vertex 4 Xcoordinate
    4.652026582837338,        !- Vertex 4 Ycoordinate
    64.95;                    !- Vertex 4 Zcoordinate

FENESTRATIONSURFACE:DETAILED,
    Block Poly_87_Residential_3 Storey 21 Wall 0007 window,    !- Name
    Window,                   !- Surface Type
    HSCWZ_Residential_2005_Win,    !- Construction Name
    Block Poly_87_Residential_3 Storey 21 Wall 0007,    !- Building Surface Name
    ,                         !- Outside Boundary Condition Object
    autocalculate,            !- View Factor to Ground
    ,                         !- Frame and Divider Name
    1,                        !- Multiplier
    autocalculate,            !- Number of Vertices
    47.18172116732556,        !- Vertex 1 Xcoordinate
    4.654238052508561,        !- Vertex 1 Ycoordinate
    64.95,                    !- Vertex 1 Zcoordinate
    47.18172116732556,        !- Vertex 2 Xcoordinate
    4.654238052508561,        !- Vertex 2 Ycoordinate
    64.05,                    !- Vertex 2 Zcoordinate
    56.2074466588315,         !- Vertex 3 Xcoordinate
    4.42305504965526,         !- Vertex 3 Ycoordinate
    64.05,                    !- Vertex 3 Zcoordinate
    56.2074466588315,         !- Vertex 4 Xcoordinate
    4.42305504965526,         !- Vertex 4 Ycoordinate
    64.95;                    !- Vertex 4 Zcoordinate

FENESTRATIONSURFACE:DETAILED,
    Block Poly_87_Residential_3 Storey 21 Wall 0008 window,    !- Name
    Window,                   !- Surface Type
    HSCWZ_Residential_2005_Win,    !- Construction Name
    Block Poly_87_Residential_3 Storey 21 Wall 0008,    !- Building Surface Name
    ,                         !- Outside Boundary Condition Object
    autocalculate,            !- View Factor to Ground
    ,                         !- Frame and Divider Name
    1,                        !- Multiplier
    autocalculate,            !- Number of Vertices
    56.211977856201294,       !- Vertex 1 Xcoordinate
    4.427540175773902,        !- Vertex 1 Ycoordinate
    64.95,                    !- Vertex 1 Zcoordinate
    56.211977856201294,       !- Vertex 2 Xcoordinate
    4.427540175773902,        !- Vertex 2 Ycoordinate
    64.05,                    !- Vertex 2 Zcoordinate
    56.23958470955008,        !- Vertex 3 Xcoordinate
    13.620005163672612,       !- Vertex 3 Ycoordinate
    64.05,                    !- Vertex 3 Zcoordinate
    56.23958470955008,        !- Vertex 4 Xcoordinate
    13.620005163672612,       !- Vertex 4 Ycoordinate
    64.95;                    !- Vertex 4 Zcoordinate

FENESTRATIONSURFACE:DETAILED,
    Block Poly_87_Residential_3 Storey 21 Wall 0009 window,    !- Name
    Window,                   !- Surface Type
    HSCWZ_Residential_2005_Win,    !- Construction Name
    Block Poly_87_Residential_3 Storey 21 Wall 0009,    !- Building Surface Name
    ,                         !- Outside Boundary Condition Object
    autocalculate,            !- View Factor to Ground
    ,                         !- Frame and Divider Name
    1,                        !- Multiplier
    autocalculate,            !- Number of Vertices
    56.211540128609165,       !- Vertex 1 Xcoordinate
    13.625091299078194,       !- Vertex 1 Ycoordinate
    64.95,                    !- Vertex 1 Zcoordinate
    56.211540128609165,       !- Vertex 2 Xcoordinate
    13.625091299078194,       !- Vertex 2 Ycoordinate
    64.05,                    !- Vertex 2 Zcoordinate
    0.1508606,                !- Vertex 3 Xcoordinate
    14.59472485153121,        !- Vertex 3 Ycoordinate
    64.05,                    !- Vertex 3 Zcoordinate
    0.1508606,                !- Vertex 4 Xcoordinate
    14.59472485153121,        !- Vertex 4 Ycoordinate
    64.95;                    !- Vertex 4 Zcoordinate

FENESTRATIONSURFACE:DETAILED,
    Block Poly_87_Residential_3 Storey 21 Wall 0010 window,    !- Name
    Window,                   !- Surface Type
    HSCWZ_Residential_2005_Win,    !- Construction Name
    Block Poly_87_Residential_3 Storey 21 Wall 0010,    !- Building Surface Name
    ,                         !- Outside Boundary Condition Object
    autocalculate,            !- View Factor to Ground
    ,                         !- Frame and Divider Name
    1,                        !- Multiplier
    autocalculate,            !- Number of Vertices
    0.1227408,                !- Vertex 1 Xcoordinate
    14.590609954259591,       !- Vertex 1 Ycoordinate
    64.95,                    !- Vertex 1 Zcoordinate
    0.1227408,                !- Vertex 2 Xcoordinate
    14.590609954259591,       !- Vertex 2 Ycoordinate
    64.05,                    !- Vertex 2 Zcoordinate
    6.140108e-05,             !- Vertex 3 Xcoordinate
    5.39941165311332,         !- Vertex 3 Ycoordinate
    64.05,                    !- Vertex 3 Zcoordinate
    6.140108e-05,             !- Vertex 4 Xcoordinate
    5.39941165311332,         !- Vertex 4 Ycoordinate
    64.95;                    !- Vertex 4 Zcoordinate

FENESTRATIONSURFACE:DETAILED,
    Block Poly_87_Residential_3 Storey 21 Wall 0011 window,    !- Name
    Window,                   !- Surface Type
    HSCWZ_Residential_2005_Win,    !- Construction Name
    Block Poly_87_Residential_3 Storey 21 Wall 0011,    !- Building Surface Name
    ,                         !- Outside Boundary Condition Object
    autocalculate,            !- View Factor to Ground
    ,                         !- Frame and Divider Name
    1,                        !- Multiplier
    autocalculate,            !- Number of Vertices
    0.004185206,              !- Vertex 1 Xcoordinate
    5.3947555935424765,       !- Vertex 1 Ycoordinate
    64.95,                    !- Vertex 1 Zcoordinate
    0.004185206,              !- Vertex 2 Xcoordinate
    5.3947555935424765,       !- Vertex 2 Ycoordinate
    64.05,                    !- Vertex 2 Zcoordinate
    8.366226615788385,        !- Vertex 3 Xcoordinate
    5.283146872143727,        !- Vertex 3 Ycoordinate
    64.05,                    !- Vertex 3 Zcoordinate
    8.366226615788385,        !- Vertex 4 Xcoordinate
    5.283146872143727,        !- Vertex 4 Ycoordinate
    64.95;                    !- Vertex 4 Zcoordinate

FENESTRATIONSURFACE:DETAILED,
    Block Poly_87_Residential_3 Storey 21 Wall 0012 window,    !- Name
    Window,                   !- Surface Type
    HSCWZ_Residential_2005_Win,    !- Construction Name
    Block Poly_87_Residential_3 Storey 21 Wall 0012,    !- Building Surface Name
    ,                         !- Outside Boundary Condition Object
    autocalculate,            !- View Factor to Ground
    ,                         !- Frame and Divider Name
    1,                        !- Multiplier
    autocalculate,            !- Number of Vertices
    8.370380753192352,        !- Vertex 1 Xcoordinate
    5.2807632002669855,       !- Vertex 1 Ycoordinate
    64.95,                    !- Vertex 1 Zcoordinate
    8.370380753192352,        !- Vertex 2 Xcoordinate
    5.2807632002669855,       !- Vertex 2 Ycoordinate
    64.05,                    !- Vertex 2 Zcoordinate
    8.308305876439205,        !- Vertex 3 Xcoordinate
    0.6297955119360705,       !- Vertex 3 Ycoordinate
    64.05,                    !- Vertex 3 Zcoordinate
    8.308305876439205,        !- Vertex 4 Xcoordinate
    0.6297955119360705,       !- Vertex 4 Ycoordinate
    64.95;                    !- Vertex 4 Zcoordinate

PEOPLE,
    People_Block Poly_87_Residential_3 Storey 0,    !- Name
    Block Poly_87_Residential_3 Storey 0,    !- Zone or ZoneList or Space or SpaceList Name
    People_Schedule,          !- Number of People Schedule Name
    Area/Person,              !- Number of People Calculation Method
    ,                         !- Number of People
    ,                         !- People per Floor Area
    18,                       !- Floor Area per Person
    0.3,                      !- Fraction Radiant
    autocalculate,            !- Sensible Heat Fraction
    CN_GenericActivityLevel,    !- Activity Level Schedule Name
    3.82e-08,                 !- Carbon Dioxide Generation Rate
    No,                       !- Enable ASHRAE 55 Comfort Warnings
    ZoneAveraged,             !- Mean Radiant Temperature Calculation Type
    ,                         !- Surface NameAngle Factor List Name
    ,                         !- Work Efficiency Schedule Name
    ClothingInsulationSchedule,    !- Clothing Insulation Calculation Method
    ,                         !- Clothing Insulation Calculation Method Schedule Name
    ,                         !- Clothing Insulation Schedule Name
    ,                         !- Air Velocity Schedule Name
    ,                         !- Thermal Comfort Model 1 Type
    ,                         !- Thermal Comfort Model 2 Type
    ,                         !- Thermal Comfort Model 3 Type
    ,                         !- Thermal Comfort Model 4 Type
    ,                         !- Thermal Comfort Model 5 Type
    ,                         !- Thermal Comfort Model 6 Type
    ,                         !- Thermal Comfort Model 7 Type
    ,                         !- Ankle Level Air Velocity Schedule Name
    15.56,                    !- Cold Stress Temperature Threshold
    30;                       !- Heat Stress Temperature Threshold

PEOPLE,
    People_Block Poly_87_Residential_3 Storey 1,    !- Name
    Block Poly_87_Residential_3 Storey 1,    !- Zone or ZoneList or Space or SpaceList Name
    People_Schedule,          !- Number of People Schedule Name
    Area/Person,              !- Number of People Calculation Method
    ,                         !- Number of People
    ,                         !- People per Floor Area
    18,                       !- Floor Area per Person
    0.3,                      !- Fraction Radiant
    autocalculate,            !- Sensible Heat Fraction
    CN_GenericActivityLevel,    !- Activity Level Schedule Name
    3.82e-08,                 !- Carbon Dioxide Generation Rate
    No,                       !- Enable ASHRAE 55 Comfort Warnings
    ZoneAveraged,             !- Mean Radiant Temperature Calculation Type
    ,                         !- Surface NameAngle Factor List Name
    ,                         !- Work Efficiency Schedule Name
    ClothingInsulationSchedule,    !- Clothing Insulation Calculation Method
    ,                         !- Clothing Insulation Calculation Method Schedule Name
    ,                         !- Clothing Insulation Schedule Name
    ,                         !- Air Velocity Schedule Name
    ,                         !- Thermal Comfort Model 1 Type
    ,                         !- Thermal Comfort Model 2 Type
    ,                         !- Thermal Comfort Model 3 Type
    ,                         !- Thermal Comfort Model 4 Type
    ,                         !- Thermal Comfort Model 5 Type
    ,                         !- Thermal Comfort Model 6 Type
    ,                         !- Thermal Comfort Model 7 Type
    ,                         !- Ankle Level Air Velocity Schedule Name
    15.56,                    !- Cold Stress Temperature Threshold
    30;                       !- Heat Stress Temperature Threshold

PEOPLE,
    People_Block Poly_87_Residential_3 Storey 2,    !- Name
    Block Poly_87_Residential_3 Storey 2,    !- Zone or ZoneList or Space or SpaceList Name
    People_Schedule,          !- Number of People Schedule Name
    Area/Person,              !- Number of People Calculation Method
    ,                         !- Number of People
    ,                         !- People per Floor Area
    18,                       !- Floor Area per Person
    0.3,                      !- Fraction Radiant
    autocalculate,            !- Sensible Heat Fraction
    CN_GenericActivityLevel,    !- Activity Level Schedule Name
    3.82e-08,                 !- Carbon Dioxide Generation Rate
    No,                       !- Enable ASHRAE 55 Comfort Warnings
    ZoneAveraged,             !- Mean Radiant Temperature Calculation Type
    ,                         !- Surface NameAngle Factor List Name
    ,                         !- Work Efficiency Schedule Name
    ClothingInsulationSchedule,    !- Clothing Insulation Calculation Method
    ,                         !- Clothing Insulation Calculation Method Schedule Name
    ,                         !- Clothing Insulation Schedule Name
    ,                         !- Air Velocity Schedule Name
    ,                         !- Thermal Comfort Model 1 Type
    ,                         !- Thermal Comfort Model 2 Type
    ,                         !- Thermal Comfort Model 3 Type
    ,                         !- Thermal Comfort Model 4 Type
    ,                         !- Thermal Comfort Model 5 Type
    ,                         !- Thermal Comfort Model 6 Type
    ,                         !- Thermal Comfort Model 7 Type
    ,                         !- Ankle Level Air Velocity Schedule Name
    15.56,                    !- Cold Stress Temperature Threshold
    30;                       !- Heat Stress Temperature Threshold

PEOPLE,
    People_Block Poly_87_Residential_3 Storey 3,    !- Name
    Block Poly_87_Residential_3 Storey 3,    !- Zone or ZoneList or Space or SpaceList Name
    People_Schedule,          !- Number of People Schedule Name
    Area/Person,              !- Number of People Calculation Method
    ,                         !- Number of People
    ,                         !- People per Floor Area
    18,                       !- Floor Area per Person
    0.3,                      !- Fraction Radiant
    autocalculate,            !- Sensible Heat Fraction
    CN_GenericActivityLevel,    !- Activity Level Schedule Name
    3.82e-08,                 !- Carbon Dioxide Generation Rate
    No,                       !- Enable ASHRAE 55 Comfort Warnings
    ZoneAveraged,             !- Mean Radiant Temperature Calculation Type
    ,                         !- Surface NameAngle Factor List Name
    ,                         !- Work Efficiency Schedule Name
    ClothingInsulationSchedule,    !- Clothing Insulation Calculation Method
    ,                         !- Clothing Insulation Calculation Method Schedule Name
    ,                         !- Clothing Insulation Schedule Name
    ,                         !- Air Velocity Schedule Name
    ,                         !- Thermal Comfort Model 1 Type
    ,                         !- Thermal Comfort Model 2 Type
    ,                         !- Thermal Comfort Model 3 Type
    ,                         !- Thermal Comfort Model 4 Type
    ,                         !- Thermal Comfort Model 5 Type
    ,                         !- Thermal Comfort Model 6 Type
    ,                         !- Thermal Comfort Model 7 Type
    ,                         !- Ankle Level Air Velocity Schedule Name
    15.56,                    !- Cold Stress Temperature Threshold
    30;                       !- Heat Stress Temperature Threshold

PEOPLE,
    People_Block Poly_87_Residential_3 Storey 4,    !- Name
    Block Poly_87_Residential_3 Storey 4,    !- Zone or ZoneList or Space or SpaceList Name
    People_Schedule,          !- Number of People Schedule Name
    Area/Person,              !- Number of People Calculation Method
    ,                         !- Number of People
    ,                         !- People per Floor Area
    18,                       !- Floor Area per Person
    0.3,                      !- Fraction Radiant
    autocalculate,            !- Sensible Heat Fraction
    CN_GenericActivityLevel,    !- Activity Level Schedule Name
    3.82e-08,                 !- Carbon Dioxide Generation Rate
    No,                       !- Enable ASHRAE 55 Comfort Warnings
    ZoneAveraged,             !- Mean Radiant Temperature Calculation Type
    ,                         !- Surface NameAngle Factor List Name
    ,                         !- Work Efficiency Schedule Name
    ClothingInsulationSchedule,    !- Clothing Insulation Calculation Method
    ,                         !- Clothing Insulation Calculation Method Schedule Name
    ,                         !- Clothing Insulation Schedule Name
    ,                         !- Air Velocity Schedule Name
    ,                         !- Thermal Comfort Model 1 Type
    ,                         !- Thermal Comfort Model 2 Type
    ,                         !- Thermal Comfort Model 3 Type
    ,                         !- Thermal Comfort Model 4 Type
    ,                         !- Thermal Comfort Model 5 Type
    ,                         !- Thermal Comfort Model 6 Type
    ,                         !- Thermal Comfort Model 7 Type
    ,                         !- Ankle Level Air Velocity Schedule Name
    15.56,                    !- Cold Stress Temperature Threshold
    30;                       !- Heat Stress Temperature Threshold

PEOPLE,
    People_Block Poly_87_Residential_3 Storey 5,    !- Name
    Block Poly_87_Residential_3 Storey 5,    !- Zone or ZoneList or Space or SpaceList Name
    People_Schedule,          !- Number of People Schedule Name
    Area/Person,              !- Number of People Calculation Method
    ,                         !- Number of People
    ,                         !- People per Floor Area
    18,                       !- Floor Area per Person
    0.3,                      !- Fraction Radiant
    autocalculate,            !- Sensible Heat Fraction
    CN_GenericActivityLevel,    !- Activity Level Schedule Name
    3.82e-08,                 !- Carbon Dioxide Generation Rate
    No,                       !- Enable ASHRAE 55 Comfort Warnings
    ZoneAveraged,             !- Mean Radiant Temperature Calculation Type
    ,                         !- Surface NameAngle Factor List Name
    ,                         !- Work Efficiency Schedule Name
    ClothingInsulationSchedule,    !- Clothing Insulation Calculation Method
    ,                         !- Clothing Insulation Calculation Method Schedule Name
    ,                         !- Clothing Insulation Schedule Name
    ,                         !- Air Velocity Schedule Name
    ,                         !- Thermal Comfort Model 1 Type
    ,                         !- Thermal Comfort Model 2 Type
    ,                         !- Thermal Comfort Model 3 Type
    ,                         !- Thermal Comfort Model 4 Type
    ,                         !- Thermal Comfort Model 5 Type
    ,                         !- Thermal Comfort Model 6 Type
    ,                         !- Thermal Comfort Model 7 Type
    ,                         !- Ankle Level Air Velocity Schedule Name
    15.56,                    !- Cold Stress Temperature Threshold
    30;                       !- Heat Stress Temperature Threshold

PEOPLE,
    People_Block Poly_87_Residential_3 Storey 6,    !- Name
    Block Poly_87_Residential_3 Storey 6,    !- Zone or ZoneList or Space or SpaceList Name
    People_Schedule,          !- Number of People Schedule Name
    Area/Person,              !- Number of People Calculation Method
    ,                         !- Number of People
    ,                         !- People per Floor Area
    18,                       !- Floor Area per Person
    0.3,                      !- Fraction Radiant
    autocalculate,            !- Sensible Heat Fraction
    CN_GenericActivityLevel,    !- Activity Level Schedule Name
    3.82e-08,                 !- Carbon Dioxide Generation Rate
    No,                       !- Enable ASHRAE 55 Comfort Warnings
    ZoneAveraged,             !- Mean Radiant Temperature Calculation Type
    ,                         !- Surface NameAngle Factor List Name
    ,                         !- Work Efficiency Schedule Name
    ClothingInsulationSchedule,    !- Clothing Insulation Calculation Method
    ,                         !- Clothing Insulation Calculation Method Schedule Name
    ,                         !- Clothing Insulation Schedule Name
    ,                         !- Air Velocity Schedule Name
    ,                         !- Thermal Comfort Model 1 Type
    ,                         !- Thermal Comfort Model 2 Type
    ,                         !- Thermal Comfort Model 3 Type
    ,                         !- Thermal Comfort Model 4 Type
    ,                         !- Thermal Comfort Model 5 Type
    ,                         !- Thermal Comfort Model 6 Type
    ,                         !- Thermal Comfort Model 7 Type
    ,                         !- Ankle Level Air Velocity Schedule Name
    15.56,                    !- Cold Stress Temperature Threshold
    30;                       !- Heat Stress Temperature Threshold

PEOPLE,
    People_Block Poly_87_Residential_3 Storey 7,    !- Name
    Block Poly_87_Residential_3 Storey 7,    !- Zone or ZoneList or Space or SpaceList Name
    People_Schedule,          !- Number of People Schedule Name
    Area/Person,              !- Number of People Calculation Method
    ,                         !- Number of People
    ,                         !- People per Floor Area
    18,                       !- Floor Area per Person
    0.3,                      !- Fraction Radiant
    autocalculate,            !- Sensible Heat Fraction
    CN_GenericActivityLevel,    !- Activity Level Schedule Name
    3.82e-08,                 !- Carbon Dioxide Generation Rate
    No,                       !- Enable ASHRAE 55 Comfort Warnings
    ZoneAveraged,             !- Mean Radiant Temperature Calculation Type
    ,                         !- Surface NameAngle Factor List Name
    ,                         !- Work Efficiency Schedule Name
    ClothingInsulationSchedule,    !- Clothing Insulation Calculation Method
    ,                         !- Clothing Insulation Calculation Method Schedule Name
    ,                         !- Clothing Insulation Schedule Name
    ,                         !- Air Velocity Schedule Name
    ,                         !- Thermal Comfort Model 1 Type
    ,                         !- Thermal Comfort Model 2 Type
    ,                         !- Thermal Comfort Model 3 Type
    ,                         !- Thermal Comfort Model 4 Type
    ,                         !- Thermal Comfort Model 5 Type
    ,                         !- Thermal Comfort Model 6 Type
    ,                         !- Thermal Comfort Model 7 Type
    ,                         !- Ankle Level Air Velocity Schedule Name
    15.56,                    !- Cold Stress Temperature Threshold
    30;                       !- Heat Stress Temperature Threshold

PEOPLE,
    People_Block Poly_87_Residential_3 Storey 8,    !- Name
    Block Poly_87_Residential_3 Storey 8,    !- Zone or ZoneList or Space or SpaceList Name
    People_Schedule,          !- Number of People Schedule Name
    Area/Person,              !- Number of People Calculation Method
    ,                         !- Number of People
    ,                         !- People per Floor Area
    18,                       !- Floor Area per Person
    0.3,                      !- Fraction Radiant
    autocalculate,            !- Sensible Heat Fraction
    CN_GenericActivityLevel,    !- Activity Level Schedule Name
    3.82e-08,                 !- Carbon Dioxide Generation Rate
    No,                       !- Enable ASHRAE 55 Comfort Warnings
    ZoneAveraged,             !- Mean Radiant Temperature Calculation Type
    ,                         !- Surface NameAngle Factor List Name
    ,                         !- Work Efficiency Schedule Name
    ClothingInsulationSchedule,    !- Clothing Insulation Calculation Method
    ,                         !- Clothing Insulation Calculation Method Schedule Name
    ,                         !- Clothing Insulation Schedule Name
    ,                         !- Air Velocity Schedule Name
    ,                         !- Thermal Comfort Model 1 Type
    ,                         !- Thermal Comfort Model 2 Type
    ,                         !- Thermal Comfort Model 3 Type
    ,                         !- Thermal Comfort Model 4 Type
    ,                         !- Thermal Comfort Model 5 Type
    ,                         !- Thermal Comfort Model 6 Type
    ,                         !- Thermal Comfort Model 7 Type
    ,                         !- Ankle Level Air Velocity Schedule Name
    15.56,                    !- Cold Stress Temperature Threshold
    30;                       !- Heat Stress Temperature Threshold

PEOPLE,
    People_Block Poly_87_Residential_3 Storey 9,    !- Name
    Block Poly_87_Residential_3 Storey 9,    !- Zone or ZoneList or Space or SpaceList Name
    People_Schedule,          !- Number of People Schedule Name
    Area/Person,              !- Number of People Calculation Method
    ,                         !- Number of People
    ,                         !- People per Floor Area
    18,                       !- Floor Area per Person
    0.3,                      !- Fraction Radiant
    autocalculate,            !- Sensible Heat Fraction
    CN_GenericActivityLevel,    !- Activity Level Schedule Name
    3.82e-08,                 !- Carbon Dioxide Generation Rate
    No,                       !- Enable ASHRAE 55 Comfort Warnings
    ZoneAveraged,             !- Mean Radiant Temperature Calculation Type
    ,                         !- Surface NameAngle Factor List Name
    ,                         !- Work Efficiency Schedule Name
    ClothingInsulationSchedule,    !- Clothing Insulation Calculation Method
    ,                         !- Clothing Insulation Calculation Method Schedule Name
    ,                         !- Clothing Insulation Schedule Name
    ,                         !- Air Velocity Schedule Name
    ,                         !- Thermal Comfort Model 1 Type
    ,                         !- Thermal Comfort Model 2 Type
    ,                         !- Thermal Comfort Model 3 Type
    ,                         !- Thermal Comfort Model 4 Type
    ,                         !- Thermal Comfort Model 5 Type
    ,                         !- Thermal Comfort Model 6 Type
    ,                         !- Thermal Comfort Model 7 Type
    ,                         !- Ankle Level Air Velocity Schedule Name
    15.56,                    !- Cold Stress Temperature Threshold
    30;                       !- Heat Stress Temperature Threshold

PEOPLE,
    People_Block Poly_87_Residential_3 Storey 10,    !- Name
    Block Poly_87_Residential_3 Storey 10,    !- Zone or ZoneList or Space or SpaceList Name
    People_Schedule,          !- Number of People Schedule Name
    Area/Person,              !- Number of People Calculation Method
    ,                         !- Number of People
    ,                         !- People per Floor Area
    18,                       !- Floor Area per Person
    0.3,                      !- Fraction Radiant
    autocalculate,            !- Sensible Heat Fraction
    CN_GenericActivityLevel,    !- Activity Level Schedule Name
    3.82e-08,                 !- Carbon Dioxide Generation Rate
    No,                       !- Enable ASHRAE 55 Comfort Warnings
    ZoneAveraged,             !- Mean Radiant Temperature Calculation Type
    ,                         !- Surface NameAngle Factor List Name
    ,                         !- Work Efficiency Schedule Name
    ClothingInsulationSchedule,    !- Clothing Insulation Calculation Method
    ,                         !- Clothing Insulation Calculation Method Schedule Name
    ,                         !- Clothing Insulation Schedule Name
    ,                         !- Air Velocity Schedule Name
    ,                         !- Thermal Comfort Model 1 Type
    ,                         !- Thermal Comfort Model 2 Type
    ,                         !- Thermal Comfort Model 3 Type
    ,                         !- Thermal Comfort Model 4 Type
    ,                         !- Thermal Comfort Model 5 Type
    ,                         !- Thermal Comfort Model 6 Type
    ,                         !- Thermal Comfort Model 7 Type
    ,                         !- Ankle Level Air Velocity Schedule Name
    15.56,                    !- Cold Stress Temperature Threshold
    30;                       !- Heat Stress Temperature Threshold

PEOPLE,
    People_Block Poly_87_Residential_3 Storey 11,    !- Name
    Block Poly_87_Residential_3 Storey 11,    !- Zone or ZoneList or Space or SpaceList Name
    People_Schedule,          !- Number of People Schedule Name
    Area/Person,              !- Number of People Calculation Method
    ,                         !- Number of People
    ,                         !- People per Floor Area
    18,                       !- Floor Area per Person
    0.3,                      !- Fraction Radiant
    autocalculate,            !- Sensible Heat Fraction
    CN_GenericActivityLevel,    !- Activity Level Schedule Name
    3.82e-08,                 !- Carbon Dioxide Generation Rate
    No,                       !- Enable ASHRAE 55 Comfort Warnings
    ZoneAveraged,             !- Mean Radiant Temperature Calculation Type
    ,                         !- Surface NameAngle Factor List Name
    ,                         !- Work Efficiency Schedule Name
    ClothingInsulationSchedule,    !- Clothing Insulation Calculation Method
    ,                         !- Clothing Insulation Calculation Method Schedule Name
    ,                         !- Clothing Insulation Schedule Name
    ,                         !- Air Velocity Schedule Name
    ,                         !- Thermal Comfort Model 1 Type
    ,                         !- Thermal Comfort Model 2 Type
    ,                         !- Thermal Comfort Model 3 Type
    ,                         !- Thermal Comfort Model 4 Type
    ,                         !- Thermal Comfort Model 5 Type
    ,                         !- Thermal Comfort Model 6 Type
    ,                         !- Thermal Comfort Model 7 Type
    ,                         !- Ankle Level Air Velocity Schedule Name
    15.56,                    !- Cold Stress Temperature Threshold
    30;                       !- Heat Stress Temperature Threshold

PEOPLE,
    People_Block Poly_87_Residential_3 Storey 12,    !- Name
    Block Poly_87_Residential_3 Storey 12,    !- Zone or ZoneList or Space or SpaceList Name
    People_Schedule,          !- Number of People Schedule Name
    Area/Person,              !- Number of People Calculation Method
    ,                         !- Number of People
    ,                         !- People per Floor Area
    18,                       !- Floor Area per Person
    0.3,                      !- Fraction Radiant
    autocalculate,            !- Sensible Heat Fraction
    CN_GenericActivityLevel,    !- Activity Level Schedule Name
    3.82e-08,                 !- Carbon Dioxide Generation Rate
    No,                       !- Enable ASHRAE 55 Comfort Warnings
    ZoneAveraged,             !- Mean Radiant Temperature Calculation Type
    ,                         !- Surface NameAngle Factor List Name
    ,                         !- Work Efficiency Schedule Name
    ClothingInsulationSchedule,    !- Clothing Insulation Calculation Method
    ,                         !- Clothing Insulation Calculation Method Schedule Name
    ,                         !- Clothing Insulation Schedule Name
    ,                         !- Air Velocity Schedule Name
    ,                         !- Thermal Comfort Model 1 Type
    ,                         !- Thermal Comfort Model 2 Type
    ,                         !- Thermal Comfort Model 3 Type
    ,                         !- Thermal Comfort Model 4 Type
    ,                         !- Thermal Comfort Model 5 Type
    ,                         !- Thermal Comfort Model 6 Type
    ,                         !- Thermal Comfort Model 7 Type
    ,                         !- Ankle Level Air Velocity Schedule Name
    15.56,                    !- Cold Stress Temperature Threshold
    30;                       !- Heat Stress Temperature Threshold

PEOPLE,
    People_Block Poly_87_Residential_3 Storey 13,    !- Name
    Block Poly_87_Residential_3 Storey 13,    !- Zone or ZoneList or Space or SpaceList Name
    People_Schedule,          !- Number of People Schedule Name
    Area/Person,              !- Number of People Calculation Method
    ,                         !- Number of People
    ,                         !- People per Floor Area
    18,                       !- Floor Area per Person
    0.3,                      !- Fraction Radiant
    autocalculate,            !- Sensible Heat Fraction
    CN_GenericActivityLevel,    !- Activity Level Schedule Name
    3.82e-08,                 !- Carbon Dioxide Generation Rate
    No,                       !- Enable ASHRAE 55 Comfort Warnings
    ZoneAveraged,             !- Mean Radiant Temperature Calculation Type
    ,                         !- Surface NameAngle Factor List Name
    ,                         !- Work Efficiency Schedule Name
    ClothingInsulationSchedule,    !- Clothing Insulation Calculation Method
    ,                         !- Clothing Insulation Calculation Method Schedule Name
    ,                         !- Clothing Insulation Schedule Name
    ,                         !- Air Velocity Schedule Name
    ,                         !- Thermal Comfort Model 1 Type
    ,                         !- Thermal Comfort Model 2 Type
    ,                         !- Thermal Comfort Model 3 Type
    ,                         !- Thermal Comfort Model 4 Type
    ,                         !- Thermal Comfort Model 5 Type
    ,                         !- Thermal Comfort Model 6 Type
    ,                         !- Thermal Comfort Model 7 Type
    ,                         !- Ankle Level Air Velocity Schedule Name
    15.56,                    !- Cold Stress Temperature Threshold
    30;                       !- Heat Stress Temperature Threshold

PEOPLE,
    People_Block Poly_87_Residential_3 Storey 14,    !- Name
    Block Poly_87_Residential_3 Storey 14,    !- Zone or ZoneList or Space or SpaceList Name
    People_Schedule,          !- Number of People Schedule Name
    Area/Person,              !- Number of People Calculation Method
    ,                         !- Number of People
    ,                         !- People per Floor Area
    18,                       !- Floor Area per Person
    0.3,                      !- Fraction Radiant
    autocalculate,            !- Sensible Heat Fraction
    CN_GenericActivityLevel,    !- Activity Level Schedule Name
    3.82e-08,                 !- Carbon Dioxide Generation Rate
    No,                       !- Enable ASHRAE 55 Comfort Warnings
    ZoneAveraged,             !- Mean Radiant Temperature Calculation Type
    ,                         !- Surface NameAngle Factor List Name
    ,                         !- Work Efficiency Schedule Name
    ClothingInsulationSchedule,    !- Clothing Insulation Calculation Method
    ,                         !- Clothing Insulation Calculation Method Schedule Name
    ,                         !- Clothing Insulation Schedule Name
    ,                         !- Air Velocity Schedule Name
    ,                         !- Thermal Comfort Model 1 Type
    ,                         !- Thermal Comfort Model 2 Type
    ,                         !- Thermal Comfort Model 3 Type
    ,                         !- Thermal Comfort Model 4 Type
    ,                         !- Thermal Comfort Model 5 Type
    ,                         !- Thermal Comfort Model 6 Type
    ,                         !- Thermal Comfort Model 7 Type
    ,                         !- Ankle Level Air Velocity Schedule Name
    15.56,                    !- Cold Stress Temperature Threshold
    30;                       !- Heat Stress Temperature Threshold

PEOPLE,
    People_Block Poly_87_Residential_3 Storey 15,    !- Name
    Block Poly_87_Residential_3 Storey 15,    !- Zone or ZoneList or Space or SpaceList Name
    People_Schedule,          !- Number of People Schedule Name
    Area/Person,              !- Number of People Calculation Method
    ,                         !- Number of People
    ,                         !- People per Floor Area
    18,                       !- Floor Area per Person
    0.3,                      !- Fraction Radiant
    autocalculate,            !- Sensible Heat Fraction
    CN_GenericActivityLevel,    !- Activity Level Schedule Name
    3.82e-08,                 !- Carbon Dioxide Generation Rate
    No,                       !- Enable ASHRAE 55 Comfort Warnings
    ZoneAveraged,             !- Mean Radiant Temperature Calculation Type
    ,                         !- Surface NameAngle Factor List Name
    ,                         !- Work Efficiency Schedule Name
    ClothingInsulationSchedule,    !- Clothing Insulation Calculation Method
    ,                         !- Clothing Insulation Calculation Method Schedule Name
    ,                         !- Clothing Insulation Schedule Name
    ,                         !- Air Velocity Schedule Name
    ,                         !- Thermal Comfort Model 1 Type
    ,                         !- Thermal Comfort Model 2 Type
    ,                         !- Thermal Comfort Model 3 Type
    ,                         !- Thermal Comfort Model 4 Type
    ,                         !- Thermal Comfort Model 5 Type
    ,                         !- Thermal Comfort Model 6 Type
    ,                         !- Thermal Comfort Model 7 Type
    ,                         !- Ankle Level Air Velocity Schedule Name
    15.56,                    !- Cold Stress Temperature Threshold
    30;                       !- Heat Stress Temperature Threshold

PEOPLE,
    People_Block Poly_87_Residential_3 Storey 16,    !- Name
    Block Poly_87_Residential_3 Storey 16,    !- Zone or ZoneList or Space or SpaceList Name
    People_Schedule,          !- Number of People Schedule Name
    Area/Person,              !- Number of People Calculation Method
    ,                         !- Number of People
    ,                         !- People per Floor Area
    18,                       !- Floor Area per Person
    0.3,                      !- Fraction Radiant
    autocalculate,            !- Sensible Heat Fraction
    CN_GenericActivityLevel,    !- Activity Level Schedule Name
    3.82e-08,                 !- Carbon Dioxide Generation Rate
    No,                       !- Enable ASHRAE 55 Comfort Warnings
    ZoneAveraged,             !- Mean Radiant Temperature Calculation Type
    ,                         !- Surface NameAngle Factor List Name
    ,                         !- Work Efficiency Schedule Name
    ClothingInsulationSchedule,    !- Clothing Insulation Calculation Method
    ,                         !- Clothing Insulation Calculation Method Schedule Name
    ,                         !- Clothing Insulation Schedule Name
    ,                         !- Air Velocity Schedule Name
    ,                         !- Thermal Comfort Model 1 Type
    ,                         !- Thermal Comfort Model 2 Type
    ,                         !- Thermal Comfort Model 3 Type
    ,                         !- Thermal Comfort Model 4 Type
    ,                         !- Thermal Comfort Model 5 Type
    ,                         !- Thermal Comfort Model 6 Type
    ,                         !- Thermal Comfort Model 7 Type
    ,                         !- Ankle Level Air Velocity Schedule Name
    15.56,                    !- Cold Stress Temperature Threshold
    30;                       !- Heat Stress Temperature Threshold

PEOPLE,
    People_Block Poly_87_Residential_3 Storey 17,    !- Name
    Block Poly_87_Residential_3 Storey 17,    !- Zone or ZoneList or Space or SpaceList Name
    People_Schedule,          !- Number of People Schedule Name
    Area/Person,              !- Number of People Calculation Method
    ,                         !- Number of People
    ,                         !- People per Floor Area
    18,                       !- Floor Area per Person
    0.3,                      !- Fraction Radiant
    autocalculate,            !- Sensible Heat Fraction
    CN_GenericActivityLevel,    !- Activity Level Schedule Name
    3.82e-08,                 !- Carbon Dioxide Generation Rate
    No,                       !- Enable ASHRAE 55 Comfort Warnings
    ZoneAveraged,             !- Mean Radiant Temperature Calculation Type
    ,                         !- Surface NameAngle Factor List Name
    ,                         !- Work Efficiency Schedule Name
    ClothingInsulationSchedule,    !- Clothing Insulation Calculation Method
    ,                         !- Clothing Insulation Calculation Method Schedule Name
    ,                         !- Clothing Insulation Schedule Name
    ,                         !- Air Velocity Schedule Name
    ,                         !- Thermal Comfort Model 1 Type
    ,                         !- Thermal Comfort Model 2 Type
    ,                         !- Thermal Comfort Model 3 Type
    ,                         !- Thermal Comfort Model 4 Type
    ,                         !- Thermal Comfort Model 5 Type
    ,                         !- Thermal Comfort Model 6 Type
    ,                         !- Thermal Comfort Model 7 Type
    ,                         !- Ankle Level Air Velocity Schedule Name
    15.56,                    !- Cold Stress Temperature Threshold
    30;                       !- Heat Stress Temperature Threshold

PEOPLE,
    People_Block Poly_87_Residential_3 Storey 18,    !- Name
    Block Poly_87_Residential_3 Storey 18,    !- Zone or ZoneList or Space or SpaceList Name
    People_Schedule,          !- Number of People Schedule Name
    Area/Person,              !- Number of People Calculation Method
    ,                         !- Number of People
    ,                         !- People per Floor Area
    18,                       !- Floor Area per Person
    0.3,                      !- Fraction Radiant
    autocalculate,            !- Sensible Heat Fraction
    CN_GenericActivityLevel,    !- Activity Level Schedule Name
    3.82e-08,                 !- Carbon Dioxide Generation Rate
    No,                       !- Enable ASHRAE 55 Comfort Warnings
    ZoneAveraged,             !- Mean Radiant Temperature Calculation Type
    ,                         !- Surface NameAngle Factor List Name
    ,                         !- Work Efficiency Schedule Name
    ClothingInsulationSchedule,    !- Clothing Insulation Calculation Method
    ,                         !- Clothing Insulation Calculation Method Schedule Name
    ,                         !- Clothing Insulation Schedule Name
    ,                         !- Air Velocity Schedule Name
    ,                         !- Thermal Comfort Model 1 Type
    ,                         !- Thermal Comfort Model 2 Type
    ,                         !- Thermal Comfort Model 3 Type
    ,                         !- Thermal Comfort Model 4 Type
    ,                         !- Thermal Comfort Model 5 Type
    ,                         !- Thermal Comfort Model 6 Type
    ,                         !- Thermal Comfort Model 7 Type
    ,                         !- Ankle Level Air Velocity Schedule Name
    15.56,                    !- Cold Stress Temperature Threshold
    30;                       !- Heat Stress Temperature Threshold

PEOPLE,
    People_Block Poly_87_Residential_3 Storey 19,    !- Name
    Block Poly_87_Residential_3 Storey 19,    !- Zone or ZoneList or Space or SpaceList Name
    People_Schedule,          !- Number of People Schedule Name
    Area/Person,              !- Number of People Calculation Method
    ,                         !- Number of People
    ,                         !- People per Floor Area
    18,                       !- Floor Area per Person
    0.3,                      !- Fraction Radiant
    autocalculate,            !- Sensible Heat Fraction
    CN_GenericActivityLevel,    !- Activity Level Schedule Name
    3.82e-08,                 !- Carbon Dioxide Generation Rate
    No,                       !- Enable ASHRAE 55 Comfort Warnings
    ZoneAveraged,             !- Mean Radiant Temperature Calculation Type
    ,                         !- Surface NameAngle Factor List Name
    ,                         !- Work Efficiency Schedule Name
    ClothingInsulationSchedule,    !- Clothing Insulation Calculation Method
    ,                         !- Clothing Insulation Calculation Method Schedule Name
    ,                         !- Clothing Insulation Schedule Name
    ,                         !- Air Velocity Schedule Name
    ,                         !- Thermal Comfort Model 1 Type
    ,                         !- Thermal Comfort Model 2 Type
    ,                         !- Thermal Comfort Model 3 Type
    ,                         !- Thermal Comfort Model 4 Type
    ,                         !- Thermal Comfort Model 5 Type
    ,                         !- Thermal Comfort Model 6 Type
    ,                         !- Thermal Comfort Model 7 Type
    ,                         !- Ankle Level Air Velocity Schedule Name
    15.56,                    !- Cold Stress Temperature Threshold
    30;                       !- Heat Stress Temperature Threshold

PEOPLE,
    People_Block Poly_87_Residential_3 Storey 20,    !- Name
    Block Poly_87_Residential_3 Storey 20,    !- Zone or ZoneList or Space or SpaceList Name
    People_Schedule,          !- Number of People Schedule Name
    Area/Person,              !- Number of People Calculation Method
    ,                         !- Number of People
    ,                         !- People per Floor Area
    18,                       !- Floor Area per Person
    0.3,                      !- Fraction Radiant
    autocalculate,            !- Sensible Heat Fraction
    CN_GenericActivityLevel,    !- Activity Level Schedule Name
    3.82e-08,                 !- Carbon Dioxide Generation Rate
    No,                       !- Enable ASHRAE 55 Comfort Warnings
    ZoneAveraged,             !- Mean Radiant Temperature Calculation Type
    ,                         !- Surface NameAngle Factor List Name
    ,                         !- Work Efficiency Schedule Name
    ClothingInsulationSchedule,    !- Clothing Insulation Calculation Method
    ,                         !- Clothing Insulation Calculation Method Schedule Name
    ,                         !- Clothing Insulation Schedule Name
    ,                         !- Air Velocity Schedule Name
    ,                         !- Thermal Comfort Model 1 Type
    ,                         !- Thermal Comfort Model 2 Type
    ,                         !- Thermal Comfort Model 3 Type
    ,                         !- Thermal Comfort Model 4 Type
    ,                         !- Thermal Comfort Model 5 Type
    ,                         !- Thermal Comfort Model 6 Type
    ,                         !- Thermal Comfort Model 7 Type
    ,                         !- Ankle Level Air Velocity Schedule Name
    15.56,                    !- Cold Stress Temperature Threshold
    30;                       !- Heat Stress Temperature Threshold

PEOPLE,
    People_Block Poly_87_Residential_3 Storey 21,    !- Name
    Block Poly_87_Residential_3 Storey 21,    !- Zone or ZoneList or Space or SpaceList Name
    People_Schedule,          !- Number of People Schedule Name
    Area/Person,              !- Number of People Calculation Method
    ,                         !- Number of People
    ,                         !- People per Floor Area
    18,                       !- Floor Area per Person
    0.3,                      !- Fraction Radiant
    autocalculate,            !- Sensible Heat Fraction
    CN_GenericActivityLevel,    !- Activity Level Schedule Name
    3.82e-08,                 !- Carbon Dioxide Generation Rate
    No,                       !- Enable ASHRAE 55 Comfort Warnings
    ZoneAveraged,             !- Mean Radiant Temperature Calculation Type
    ,                         !- Surface NameAngle Factor List Name
    ,                         !- Work Efficiency Schedule Name
    ClothingInsulationSchedule,    !- Clothing Insulation Calculation Method
    ,                         !- Clothing Insulation Calculation Method Schedule Name
    ,                         !- Clothing Insulation Schedule Name
    ,                         !- Air Velocity Schedule Name
    ,                         !- Thermal Comfort Model 1 Type
    ,                         !- Thermal Comfort Model 2 Type
    ,                         !- Thermal Comfort Model 3 Type
    ,                         !- Thermal Comfort Model 4 Type
    ,                         !- Thermal Comfort Model 5 Type
    ,                         !- Thermal Comfort Model 6 Type
    ,                         !- Thermal Comfort Model 7 Type
    ,                         !- Ankle Level Air Velocity Schedule Name
    15.56,                    !- Cold Stress Temperature Threshold
    30;                       !- Heat Stress Temperature Threshold

LIGHTS,
    Lights_Block Poly_87_Residential_3 Storey 0,    !- Name
    Block Poly_87_Residential_3 Storey 0,    !- Zone or ZoneList or Space or SpaceList Name
    Lights_Schedule,          !- Schedule Name
    Watts/Area,               !- Design Level Calculation Method
    ,                         !- Lighting Level
    7,                        !- Watts per Zone Floor Area
    ,                         !- Watts per Person
    0,                        !- Return Air Fraction
    0,                        !- Fraction Radiant
    0,                        !- Fraction Visible
    1,                        !- Fraction Replaceable
    General,                  !- EndUse Subcategory
    No,                       !- Return Air Fraction Calculated from Plenum Temperature
    0,                        !- Return Air Fraction Function of Plenum Temperature Coefficient 1
    0;                        !- Return Air Fraction Function of Plenum Temperature Coefficient 2

LIGHTS,
    Lights_Block Poly_87_Residential_3 Storey 1,    !- Name
    Block Poly_87_Residential_3 Storey 1,    !- Zone or ZoneList or Space or SpaceList Name
    Lights_Schedule,          !- Schedule Name
    Watts/Area,               !- Design Level Calculation Method
    ,                         !- Lighting Level
    7,                        !- Watts per Zone Floor Area
    ,                         !- Watts per Person
    0,                        !- Return Air Fraction
    0,                        !- Fraction Radiant
    0,                        !- Fraction Visible
    1,                        !- Fraction Replaceable
    General,                  !- EndUse Subcategory
    No,                       !- Return Air Fraction Calculated from Plenum Temperature
    0,                        !- Return Air Fraction Function of Plenum Temperature Coefficient 1
    0;                        !- Return Air Fraction Function of Plenum Temperature Coefficient 2

LIGHTS,
    Lights_Block Poly_87_Residential_3 Storey 2,    !- Name
    Block Poly_87_Residential_3 Storey 2,    !- Zone or ZoneList or Space or SpaceList Name
    Lights_Schedule,          !- Schedule Name
    Watts/Area,               !- Design Level Calculation Method
    ,                         !- Lighting Level
    7,                        !- Watts per Zone Floor Area
    ,                         !- Watts per Person
    0,                        !- Return Air Fraction
    0,                        !- Fraction Radiant
    0,                        !- Fraction Visible
    1,                        !- Fraction Replaceable
    General,                  !- EndUse Subcategory
    No,                       !- Return Air Fraction Calculated from Plenum Temperature
    0,                        !- Return Air Fraction Function of Plenum Temperature Coefficient 1
    0;                        !- Return Air Fraction Function of Plenum Temperature Coefficient 2

LIGHTS,
    Lights_Block Poly_87_Residential_3 Storey 3,    !- Name
    Block Poly_87_Residential_3 Storey 3,    !- Zone or ZoneList or Space or SpaceList Name
    Lights_Schedule,          !- Schedule Name
    Watts/Area,               !- Design Level Calculation Method
    ,                         !- Lighting Level
    7,                        !- Watts per Zone Floor Area
    ,                         !- Watts per Person
    0,                        !- Return Air Fraction
    0,                        !- Fraction Radiant
    0,                        !- Fraction Visible
    1,                        !- Fraction Replaceable
    General,                  !- EndUse Subcategory
    No,                       !- Return Air Fraction Calculated from Plenum Temperature
    0,                        !- Return Air Fraction Function of Plenum Temperature Coefficient 1
    0;                        !- Return Air Fraction Function of Plenum Temperature Coefficient 2

LIGHTS,
    Lights_Block Poly_87_Residential_3 Storey 4,    !- Name
    Block Poly_87_Residential_3 Storey 4,    !- Zone or ZoneList or Space or SpaceList Name
    Lights_Schedule,          !- Schedule Name
    Watts/Area,               !- Design Level Calculation Method
    ,                         !- Lighting Level
    7,                        !- Watts per Zone Floor Area
    ,                         !- Watts per Person
    0,                        !- Return Air Fraction
    0,                        !- Fraction Radiant
    0,                        !- Fraction Visible
    1,                        !- Fraction Replaceable
    General,                  !- EndUse Subcategory
    No,                       !- Return Air Fraction Calculated from Plenum Temperature
    0,                        !- Return Air Fraction Function of Plenum Temperature Coefficient 1
    0;                        !- Return Air Fraction Function of Plenum Temperature Coefficient 2

LIGHTS,
    Lights_Block Poly_87_Residential_3 Storey 5,    !- Name
    Block Poly_87_Residential_3 Storey 5,    !- Zone or ZoneList or Space or SpaceList Name
    Lights_Schedule,          !- Schedule Name
    Watts/Area,               !- Design Level Calculation Method
    ,                         !- Lighting Level
    7,                        !- Watts per Zone Floor Area
    ,                         !- Watts per Person
    0,                        !- Return Air Fraction
    0,                        !- Fraction Radiant
    0,                        !- Fraction Visible
    1,                        !- Fraction Replaceable
    General,                  !- EndUse Subcategory
    No,                       !- Return Air Fraction Calculated from Plenum Temperature
    0,                        !- Return Air Fraction Function of Plenum Temperature Coefficient 1
    0;                        !- Return Air Fraction Function of Plenum Temperature Coefficient 2

LIGHTS,
    Lights_Block Poly_87_Residential_3 Storey 6,    !- Name
    Block Poly_87_Residential_3 Storey 6,    !- Zone or ZoneList or Space or SpaceList Name
    Lights_Schedule,          !- Schedule Name
    Watts/Area,               !- Design Level Calculation Method
    ,                         !- Lighting Level
    7,                        !- Watts per Zone Floor Area
    ,                         !- Watts per Person
    0,                        !- Return Air Fraction
    0,                        !- Fraction Radiant
    0,                        !- Fraction Visible
    1,                        !- Fraction Replaceable
    General,                  !- EndUse Subcategory
    No,                       !- Return Air Fraction Calculated from Plenum Temperature
    0,                        !- Return Air Fraction Function of Plenum Temperature Coefficient 1
    0;                        !- Return Air Fraction Function of Plenum Temperature Coefficient 2

LIGHTS,
    Lights_Block Poly_87_Residential_3 Storey 7,    !- Name
    Block Poly_87_Residential_3 Storey 7,    !- Zone or ZoneList or Space or SpaceList Name
    Lights_Schedule,          !- Schedule Name
    Watts/Area,               !- Design Level Calculation Method
    ,                         !- Lighting Level
    7,                        !- Watts per Zone Floor Area
    ,                         !- Watts per Person
    0,                        !- Return Air Fraction
    0,                        !- Fraction Radiant
    0,                        !- Fraction Visible
    1,                        !- Fraction Replaceable
    General,                  !- EndUse Subcategory
    No,                       !- Return Air Fraction Calculated from Plenum Temperature
    0,                        !- Return Air Fraction Function of Plenum Temperature Coefficient 1
    0;                        !- Return Air Fraction Function of Plenum Temperature Coefficient 2

LIGHTS,
    Lights_Block Poly_87_Residential_3 Storey 8,    !- Name
    Block Poly_87_Residential_3 Storey 8,    !- Zone or ZoneList or Space or SpaceList Name
    Lights_Schedule,          !- Schedule Name
    Watts/Area,               !- Design Level Calculation Method
    ,                         !- Lighting Level
    7,                        !- Watts per Zone Floor Area
    ,                         !- Watts per Person
    0,                        !- Return Air Fraction
    0,                        !- Fraction Radiant
    0,                        !- Fraction Visible
    1,                        !- Fraction Replaceable
    General,                  !- EndUse Subcategory
    No,                       !- Return Air Fraction Calculated from Plenum Temperature
    0,                        !- Return Air Fraction Function of Plenum Temperature Coefficient 1
    0;                        !- Return Air Fraction Function of Plenum Temperature Coefficient 2

LIGHTS,
    Lights_Block Poly_87_Residential_3 Storey 9,    !- Name
    Block Poly_87_Residential_3 Storey 9,    !- Zone or ZoneList or Space or SpaceList Name
    Lights_Schedule,          !- Schedule Name
    Watts/Area,               !- Design Level Calculation Method
    ,                         !- Lighting Level
    7,                        !- Watts per Zone Floor Area
    ,                         !- Watts per Person
    0,                        !- Return Air Fraction
    0,                        !- Fraction Radiant
    0,                        !- Fraction Visible
    1,                        !- Fraction Replaceable
    General,                  !- EndUse Subcategory
    No,                       !- Return Air Fraction Calculated from Plenum Temperature
    0,                        !- Return Air Fraction Function of Plenum Temperature Coefficient 1
    0;                        !- Return Air Fraction Function of Plenum Temperature Coefficient 2

LIGHTS,
    Lights_Block Poly_87_Residential_3 Storey 10,    !- Name
    Block Poly_87_Residential_3 Storey 10,    !- Zone or ZoneList or Space or SpaceList Name
    Lights_Schedule,          !- Schedule Name
    Watts/Area,               !- Design Level Calculation Method
    ,                         !- Lighting Level
    7,                        !- Watts per Zone Floor Area
    ,                         !- Watts per Person
    0,                        !- Return Air Fraction
    0,                        !- Fraction Radiant
    0,                        !- Fraction Visible
    1,                        !- Fraction Replaceable
    General,                  !- EndUse Subcategory
    No,                       !- Return Air Fraction Calculated from Plenum Temperature
    0,                        !- Return Air Fraction Function of Plenum Temperature Coefficient 1
    0;                        !- Return Air Fraction Function of Plenum Temperature Coefficient 2

LIGHTS,
    Lights_Block Poly_87_Residential_3 Storey 11,    !- Name
    Block Poly_87_Residential_3 Storey 11,    !- Zone or ZoneList or Space or SpaceList Name
    Lights_Schedule,          !- Schedule Name
    Watts/Area,               !- Design Level Calculation Method
    ,                         !- Lighting Level
    7,                        !- Watts per Zone Floor Area
    ,                         !- Watts per Person
    0,                        !- Return Air Fraction
    0,                        !- Fraction Radiant
    0,                        !- Fraction Visible
    1,                        !- Fraction Replaceable
    General,                  !- EndUse Subcategory
    No,                       !- Return Air Fraction Calculated from Plenum Temperature
    0,                        !- Return Air Fraction Function of Plenum Temperature Coefficient 1
    0;                        !- Return Air Fraction Function of Plenum Temperature Coefficient 2

LIGHTS,
    Lights_Block Poly_87_Residential_3 Storey 12,    !- Name
    Block Poly_87_Residential_3 Storey 12,    !- Zone or ZoneList or Space or SpaceList Name
    Lights_Schedule,          !- Schedule Name
    Watts/Area,               !- Design Level Calculation Method
    ,                         !- Lighting Level
    7,                        !- Watts per Zone Floor Area
    ,                         !- Watts per Person
    0,                        !- Return Air Fraction
    0,                        !- Fraction Radiant
    0,                        !- Fraction Visible
    1,                        !- Fraction Replaceable
    General,                  !- EndUse Subcategory
    No,                       !- Return Air Fraction Calculated from Plenum Temperature
    0,                        !- Return Air Fraction Function of Plenum Temperature Coefficient 1
    0;                        !- Return Air Fraction Function of Plenum Temperature Coefficient 2

LIGHTS,
    Lights_Block Poly_87_Residential_3 Storey 13,    !- Name
    Block Poly_87_Residential_3 Storey 13,    !- Zone or ZoneList or Space or SpaceList Name
    Lights_Schedule,          !- Schedule Name
    Watts/Area,               !- Design Level Calculation Method
    ,                         !- Lighting Level
    7,                        !- Watts per Zone Floor Area
    ,                         !- Watts per Person
    0,                        !- Return Air Fraction
    0,                        !- Fraction Radiant
    0,                        !- Fraction Visible
    1,                        !- Fraction Replaceable
    General,                  !- EndUse Subcategory
    No,                       !- Return Air Fraction Calculated from Plenum Temperature
    0,                        !- Return Air Fraction Function of Plenum Temperature Coefficient 1
    0;                        !- Return Air Fraction Function of Plenum Temperature Coefficient 2

LIGHTS,
    Lights_Block Poly_87_Residential_3 Storey 14,    !- Name
    Block Poly_87_Residential_3 Storey 14,    !- Zone or ZoneList or Space or SpaceList Name
    Lights_Schedule,          !- Schedule Name
    Watts/Area,               !- Design Level Calculation Method
    ,                         !- Lighting Level
    7,                        !- Watts per Zone Floor Area
    ,                         !- Watts per Person
    0,                        !- Return Air Fraction
    0,                        !- Fraction Radiant
    0,                        !- Fraction Visible
    1,                        !- Fraction Replaceable
    General,                  !- EndUse Subcategory
    No,                       !- Return Air Fraction Calculated from Plenum Temperature
    0,                        !- Return Air Fraction Function of Plenum Temperature Coefficient 1
    0;                        !- Return Air Fraction Function of Plenum Temperature Coefficient 2

LIGHTS,
    Lights_Block Poly_87_Residential_3 Storey 15,    !- Name
    Block Poly_87_Residential_3 Storey 15,    !- Zone or ZoneList or Space or SpaceList Name
    Lights_Schedule,          !- Schedule Name
    Watts/Area,               !- Design Level Calculation Method
    ,                         !- Lighting Level
    7,                        !- Watts per Zone Floor Area
    ,                         !- Watts per Person
    0,                        !- Return Air Fraction
    0,                        !- Fraction Radiant
    0,                        !- Fraction Visible
    1,                        !- Fraction Replaceable
    General,                  !- EndUse Subcategory
    No,                       !- Return Air Fraction Calculated from Plenum Temperature
    0,                        !- Return Air Fraction Function of Plenum Temperature Coefficient 1
    0;                        !- Return Air Fraction Function of Plenum Temperature Coefficient 2

LIGHTS,
    Lights_Block Poly_87_Residential_3 Storey 16,    !- Name
    Block Poly_87_Residential_3 Storey 16,    !- Zone or ZoneList or Space or SpaceList Name
    Lights_Schedule,          !- Schedule Name
    Watts/Area,               !- Design Level Calculation Method
    ,                         !- Lighting Level
    7,                        !- Watts per Zone Floor Area
    ,                         !- Watts per Person
    0,                        !- Return Air Fraction
    0,                        !- Fraction Radiant
    0,                        !- Fraction Visible
    1,                        !- Fraction Replaceable
    General,                  !- EndUse Subcategory
    No,                       !- Return Air Fraction Calculated from Plenum Temperature
    0,                        !- Return Air Fraction Function of Plenum Temperature Coefficient 1
    0;                        !- Return Air Fraction Function of Plenum Temperature Coefficient 2

LIGHTS,
    Lights_Block Poly_87_Residential_3 Storey 17,    !- Name
    Block Poly_87_Residential_3 Storey 17,    !- Zone or ZoneList or Space or SpaceList Name
    Lights_Schedule,          !- Schedule Name
    Watts/Area,               !- Design Level Calculation Method
    ,                         !- Lighting Level
    7,                        !- Watts per Zone Floor Area
    ,                         !- Watts per Person
    0,                        !- Return Air Fraction
    0,                        !- Fraction Radiant
    0,                        !- Fraction Visible
    1,                        !- Fraction Replaceable
    General,                  !- EndUse Subcategory
    No,                       !- Return Air Fraction Calculated from Plenum Temperature
    0,                        !- Return Air Fraction Function of Plenum Temperature Coefficient 1
    0;                        !- Return Air Fraction Function of Plenum Temperature Coefficient 2

LIGHTS,
    Lights_Block Poly_87_Residential_3 Storey 18,    !- Name
    Block Poly_87_Residential_3 Storey 18,    !- Zone or ZoneList or Space or SpaceList Name
    Lights_Schedule,          !- Schedule Name
    Watts/Area,               !- Design Level Calculation Method
    ,                         !- Lighting Level
    7,                        !- Watts per Zone Floor Area
    ,                         !- Watts per Person
    0,                        !- Return Air Fraction
    0,                        !- Fraction Radiant
    0,                        !- Fraction Visible
    1,                        !- Fraction Replaceable
    General,                  !- EndUse Subcategory
    No,                       !- Return Air Fraction Calculated from Plenum Temperature
    0,                        !- Return Air Fraction Function of Plenum Temperature Coefficient 1
    0;                        !- Return Air Fraction Function of Plenum Temperature Coefficient 2

LIGHTS,
    Lights_Block Poly_87_Residential_3 Storey 19,    !- Name
    Block Poly_87_Residential_3 Storey 19,    !- Zone or ZoneList or Space or SpaceList Name
    Lights_Schedule,          !- Schedule Name
    Watts/Area,               !- Design Level Calculation Method
    ,                         !- Lighting Level
    7,                        !- Watts per Zone Floor Area
    ,                         !- Watts per Person
    0,                        !- Return Air Fraction
    0,                        !- Fraction Radiant
    0,                        !- Fraction Visible
    1,                        !- Fraction Replaceable
    General,                  !- EndUse Subcategory
    No,                       !- Return Air Fraction Calculated from Plenum Temperature
    0,                        !- Return Air Fraction Function of Plenum Temperature Coefficient 1
    0;                        !- Return Air Fraction Function of Plenum Temperature Coefficient 2

LIGHTS,
    Lights_Block Poly_87_Residential_3 Storey 20,    !- Name
    Block Poly_87_Residential_3 Storey 20,    !- Zone or ZoneList or Space or SpaceList Name
    Lights_Schedule,          !- Schedule Name
    Watts/Area,               !- Design Level Calculation Method
    ,                         !- Lighting Level
    7,                        !- Watts per Zone Floor Area
    ,                         !- Watts per Person
    0,                        !- Return Air Fraction
    0,                        !- Fraction Radiant
    0,                        !- Fraction Visible
    1,                        !- Fraction Replaceable
    General,                  !- EndUse Subcategory
    No,                       !- Return Air Fraction Calculated from Plenum Temperature
    0,                        !- Return Air Fraction Function of Plenum Temperature Coefficient 1
    0;                        !- Return Air Fraction Function of Plenum Temperature Coefficient 2

LIGHTS,
    Lights_Block Poly_87_Residential_3 Storey 21,    !- Name
    Block Poly_87_Residential_3 Storey 21,    !- Zone or ZoneList or Space or SpaceList Name
    Lights_Schedule,          !- Schedule Name
    Watts/Area,               !- Design Level Calculation Method
    ,                         !- Lighting Level
    7,                        !- Watts per Zone Floor Area
    ,                         !- Watts per Person
    0,                        !- Return Air Fraction
    0,                        !- Fraction Radiant
    0,                        !- Fraction Visible
    1,                        !- Fraction Replaceable
    General,                  !- EndUse Subcategory
    No,                       !- Return Air Fraction Calculated from Plenum Temperature
    0,                        !- Return Air Fraction Function of Plenum Temperature Coefficient 1
    0;                        !- Return Air Fraction Function of Plenum Temperature Coefficient 2

ELECTRICEQUIPMENT,
    ElectricEquipment_Block Poly_87_Residential_3 Storey 0,    !- Name
    Block Poly_87_Residential_3 Storey 0,    !- Zone or ZoneList or Space or SpaceList Name
    ElectricEquipment_Schedule,    !- Schedule Name
    Watts/Area,               !- Design Level Calculation Method
    ,                         !- Design Level
    5.5,                      !- Watts per Zone Floor Area
    ,                         !- Watts per Person
    0,                        !- Fraction Latent
    0,                        !- Fraction Radiant
    0,                        !- Fraction Lost
    General;                  !- EndUse Subcategory

ELECTRICEQUIPMENT,
    ElectricEquipment_Block Poly_87_Residential_3 Storey 1,    !- Name
    Block Poly_87_Residential_3 Storey 1,    !- Zone or ZoneList or Space or SpaceList Name
    ElectricEquipment_Schedule,    !- Schedule Name
    Watts/Area,               !- Design Level Calculation Method
    ,                         !- Design Level
    5.5,                      !- Watts per Zone Floor Area
    ,                         !- Watts per Person
    0,                        !- Fraction Latent
    0,                        !- Fraction Radiant
    0,                        !- Fraction Lost
    General;                  !- EndUse Subcategory

ELECTRICEQUIPMENT,
    ElectricEquipment_Block Poly_87_Residential_3 Storey 2,    !- Name
    Block Poly_87_Residential_3 Storey 2,    !- Zone or ZoneList or Space or SpaceList Name
    ElectricEquipment_Schedule,    !- Schedule Name
    Watts/Area,               !- Design Level Calculation Method
    ,                         !- Design Level
    5.5,                      !- Watts per Zone Floor Area
    ,                         !- Watts per Person
    0,                        !- Fraction Latent
    0,                        !- Fraction Radiant
    0,                        !- Fraction Lost
    General;                  !- EndUse Subcategory

ELECTRICEQUIPMENT,
    ElectricEquipment_Block Poly_87_Residential_3 Storey 3,    !- Name
    Block Poly_87_Residential_3 Storey 3,    !- Zone or ZoneList or Space or SpaceList Name
    ElectricEquipment_Schedule,    !- Schedule Name
    Watts/Area,               !- Design Level Calculation Method
    ,                         !- Design Level
    5.5,                      !- Watts per Zone Floor Area
    ,                         !- Watts per Person
    0,                        !- Fraction Latent
    0,                        !- Fraction Radiant
    0,                        !- Fraction Lost
    General;                  !- EndUse Subcategory

ELECTRICEQUIPMENT,
    ElectricEquipment_Block Poly_87_Residential_3 Storey 4,    !- Name
    Block Poly_87_Residential_3 Storey 4,    !- Zone or ZoneList or Space or SpaceList Name
    ElectricEquipment_Schedule,    !- Schedule Name
    Watts/Area,               !- Design Level Calculation Method
    ,                         !- Design Level
    5.5,                      !- Watts per Zone Floor Area
    ,                         !- Watts per Person
    0,                        !- Fraction Latent
    0,                        !- Fraction Radiant
    0,                        !- Fraction Lost
    General;                  !- EndUse Subcategory

ELECTRICEQUIPMENT,
    ElectricEquipment_Block Poly_87_Residential_3 Storey 5,    !- Name
    Block Poly_87_Residential_3 Storey 5,    !- Zone or ZoneList or Space or SpaceList Name
    ElectricEquipment_Schedule,    !- Schedule Name
    Watts/Area,               !- Design Level Calculation Method
    ,                         !- Design Level
    5.5,                      !- Watts per Zone Floor Area
    ,                         !- Watts per Person
    0,                        !- Fraction Latent
    0,                        !- Fraction Radiant
    0,                        !- Fraction Lost
    General;                  !- EndUse Subcategory

ELECTRICEQUIPMENT,
    ElectricEquipment_Block Poly_87_Residential_3 Storey 6,    !- Name
    Block Poly_87_Residential_3 Storey 6,    !- Zone or ZoneList or Space or SpaceList Name
    ElectricEquipment_Schedule,    !- Schedule Name
    Watts/Area,               !- Design Level Calculation Method
    ,                         !- Design Level
    5.5,                      !- Watts per Zone Floor Area
    ,                         !- Watts per Person
    0,                        !- Fraction Latent
    0,                        !- Fraction Radiant
    0,                        !- Fraction Lost
    General;                  !- EndUse Subcategory

ELECTRICEQUIPMENT,
    ElectricEquipment_Block Poly_87_Residential_3 Storey 7,    !- Name
    Block Poly_87_Residential_3 Storey 7,    !- Zone or ZoneList or Space or SpaceList Name
    ElectricEquipment_Schedule,    !- Schedule Name
    Watts/Area,               !- Design Level Calculation Method
    ,                         !- Design Level
    5.5,                      !- Watts per Zone Floor Area
    ,                         !- Watts per Person
    0,                        !- Fraction Latent
    0,                        !- Fraction Radiant
    0,                        !- Fraction Lost
    General;                  !- EndUse Subcategory

ELECTRICEQUIPMENT,
    ElectricEquipment_Block Poly_87_Residential_3 Storey 8,    !- Name
    Block Poly_87_Residential_3 Storey 8,    !- Zone or ZoneList or Space or SpaceList Name
    ElectricEquipment_Schedule,    !- Schedule Name
    Watts/Area,               !- Design Level Calculation Method
    ,                         !- Design Level
    5.5,                      !- Watts per Zone Floor Area
    ,                         !- Watts per Person
    0,                        !- Fraction Latent
    0,                        !- Fraction Radiant
    0,                        !- Fraction Lost
    General;                  !- EndUse Subcategory

ELECTRICEQUIPMENT,
    ElectricEquipment_Block Poly_87_Residential_3 Storey 9,    !- Name
    Block Poly_87_Residential_3 Storey 9,    !- Zone or ZoneList or Space or SpaceList Name
    ElectricEquipment_Schedule,    !- Schedule Name
    Watts/Area,               !- Design Level Calculation Method
    ,                         !- Design Level
    5.5,                      !- Watts per Zone Floor Area
    ,                         !- Watts per Person
    0,                        !- Fraction Latent
    0,                        !- Fraction Radiant
    0,                        !- Fraction Lost
    General;                  !- EndUse Subcategory

ELECTRICEQUIPMENT,
    ElectricEquipment_Block Poly_87_Residential_3 Storey 10,    !- Name
    Block Poly_87_Residential_3 Storey 10,    !- Zone or ZoneList or Space or SpaceList Name
    ElectricEquipment_Schedule,    !- Schedule Name
    Watts/Area,               !- Design Level Calculation Method
    ,                         !- Design Level
    5.5,                      !- Watts per Zone Floor Area
    ,                         !- Watts per Person
    0,                        !- Fraction Latent
    0,                        !- Fraction Radiant
    0,                        !- Fraction Lost
    General;                  !- EndUse Subcategory

ELECTRICEQUIPMENT,
    ElectricEquipment_Block Poly_87_Residential_3 Storey 11,    !- Name
    Block Poly_87_Residential_3 Storey 11,    !- Zone or ZoneList or Space or SpaceList Name
    ElectricEquipment_Schedule,    !- Schedule Name
    Watts/Area,               !- Design Level Calculation Method
    ,                         !- Design Level
    5.5,                      !- Watts per Zone Floor Area
    ,                         !- Watts per Person
    0,                        !- Fraction Latent
    0,                        !- Fraction Radiant
    0,                        !- Fraction Lost
    General;                  !- EndUse Subcategory

ELECTRICEQUIPMENT,
    ElectricEquipment_Block Poly_87_Residential_3 Storey 12,    !- Name
    Block Poly_87_Residential_3 Storey 12,    !- Zone or ZoneList or Space or SpaceList Name
    ElectricEquipment_Schedule,    !- Schedule Name
    Watts/Area,               !- Design Level Calculation Method
    ,                         !- Design Level
    5.5,                      !- Watts per Zone Floor Area
    ,                         !- Watts per Person
    0,                        !- Fraction Latent
    0,                        !- Fraction Radiant
    0,                        !- Fraction Lost
    General;                  !- EndUse Subcategory

ELECTRICEQUIPMENT,
    ElectricEquipment_Block Poly_87_Residential_3 Storey 13,    !- Name
    Block Poly_87_Residential_3 Storey 13,    !- Zone or ZoneList or Space or SpaceList Name
    ElectricEquipment_Schedule,    !- Schedule Name
    Watts/Area,               !- Design Level Calculation Method
    ,                         !- Design Level
    5.5,                      !- Watts per Zone Floor Area
    ,                         !- Watts per Person
    0,                        !- Fraction Latent
    0,                        !- Fraction Radiant
    0,                        !- Fraction Lost
    General;                  !- EndUse Subcategory

ELECTRICEQUIPMENT,
    ElectricEquipment_Block Poly_87_Residential_3 Storey 14,    !- Name
    Block Poly_87_Residential_3 Storey 14,    !- Zone or ZoneList or Space or SpaceList Name
    ElectricEquipment_Schedule,    !- Schedule Name
    Watts/Area,               !- Design Level Calculation Method
    ,                         !- Design Level
    5.5,                      !- Watts per Zone Floor Area
    ,                         !- Watts per Person
    0,                        !- Fraction Latent
    0,                        !- Fraction Radiant
    0,                        !- Fraction Lost
    General;                  !- EndUse Subcategory

ELECTRICEQUIPMENT,
    ElectricEquipment_Block Poly_87_Residential_3 Storey 15,    !- Name
    Block Poly_87_Residential_3 Storey 15,    !- Zone or ZoneList or Space or SpaceList Name
    ElectricEquipment_Schedule,    !- Schedule Name
    Watts/Area,               !- Design Level Calculation Method
    ,                         !- Design Level
    5.5,                      !- Watts per Zone Floor Area
    ,                         !- Watts per Person
    0,                        !- Fraction Latent
    0,                        !- Fraction Radiant
    0,                        !- Fraction Lost
    General;                  !- EndUse Subcategory

ELECTRICEQUIPMENT,
    ElectricEquipment_Block Poly_87_Residential_3 Storey 16,    !- Name
    Block Poly_87_Residential_3 Storey 16,    !- Zone or ZoneList or Space or SpaceList Name
    ElectricEquipment_Schedule,    !- Schedule Name
    Watts/Area,               !- Design Level Calculation Method
    ,                         !- Design Level
    5.5,                      !- Watts per Zone Floor Area
    ,                         !- Watts per Person
    0,                        !- Fraction Latent
    0,                        !- Fraction Radiant
    0,                        !- Fraction Lost
    General;                  !- EndUse Subcategory

ELECTRICEQUIPMENT,
    ElectricEquipment_Block Poly_87_Residential_3 Storey 17,    !- Name
    Block Poly_87_Residential_3 Storey 17,    !- Zone or ZoneList or Space or SpaceList Name
    ElectricEquipment_Schedule,    !- Schedule Name
    Watts/Area,               !- Design Level Calculation Method
    ,                         !- Design Level
    5.5,                      !- Watts per Zone Floor Area
    ,                         !- Watts per Person
    0,                        !- Fraction Latent
    0,                        !- Fraction Radiant
    0,                        !- Fraction Lost
    General;                  !- EndUse Subcategory

ELECTRICEQUIPMENT,
    ElectricEquipment_Block Poly_87_Residential_3 Storey 18,    !- Name
    Block Poly_87_Residential_3 Storey 18,    !- Zone or ZoneList or Space or SpaceList Name
    ElectricEquipment_Schedule,    !- Schedule Name
    Watts/Area,               !- Design Level Calculation Method
    ,                         !- Design Level
    5.5,                      !- Watts per Zone Floor Area
    ,                         !- Watts per Person
    0,                        !- Fraction Latent
    0,                        !- Fraction Radiant
    0,                        !- Fraction Lost
    General;                  !- EndUse Subcategory

ELECTRICEQUIPMENT,
    ElectricEquipment_Block Poly_87_Residential_3 Storey 19,    !- Name
    Block Poly_87_Residential_3 Storey 19,    !- Zone or ZoneList or Space or SpaceList Name
    ElectricEquipment_Schedule,    !- Schedule Name
    Watts/Area,               !- Design Level Calculation Method
    ,                         !- Design Level
    5.5,                      !- Watts per Zone Floor Area
    ,                         !- Watts per Person
    0,                        !- Fraction Latent
    0,                        !- Fraction Radiant
    0,                        !- Fraction Lost
    General;                  !- EndUse Subcategory

ELECTRICEQUIPMENT,
    ElectricEquipment_Block Poly_87_Residential_3 Storey 20,    !- Name
    Block Poly_87_Residential_3 Storey 20,    !- Zone or ZoneList or Space or SpaceList Name
    ElectricEquipment_Schedule,    !- Schedule Name
    Watts/Area,               !- Design Level Calculation Method
    ,                         !- Design Level
    5.5,                      !- Watts per Zone Floor Area
    ,                         !- Watts per Person
    0,                        !- Fraction Latent
    0,                        !- Fraction Radiant
    0,                        !- Fraction Lost
    General;                  !- EndUse Subcategory

ELECTRICEQUIPMENT,
    ElectricEquipment_Block Poly_87_Residential_3 Storey 21,    !- Name
    Block Poly_87_Residential_3 Storey 21,    !- Zone or ZoneList or Space or SpaceList Name
    ElectricEquipment_Schedule,    !- Schedule Name
    Watts/Area,               !- Design Level Calculation Method
    ,                         !- Design Level
    5.5,                      !- Watts per Zone Floor Area
    ,                         !- Watts per Person
    0,                        !- Fraction Latent
    0,                        !- Fraction Radiant
    0,                        !- Fraction Lost
    General;                  !- EndUse Subcategory

ZONEINFILTRATION:DESIGNFLOWRATE,
    Infil 1,                  !- Name
    Block Poly_87_Residential_3 Storey 0,    !- Zone or ZoneList or Space or SpaceList Name
    AirEx_ConditionedTime_Schedule,    !- Schedule Name
    AirChanges/Hour,          !- Design Flow Rate Calculation Method
    ,                         !- Design Flow Rate
    ,                         !- Flow Rate per Floor Area
    ,                         !- Flow Rate per Exterior Surface Area
    1,                        !- Air Changes per Hour
    1,                        !- Constant Term Coefficient
    0,                        !- Temperature Term Coefficient
    0,                        !- Velocity Term Coefficient
    0;                        !- Velocity Squared Term Coefficient

ZONEINFILTRATION:DESIGNFLOWRATE,
    Infil 2,                  !- Name
    Block Poly_87_Residential_3 Storey 1,    !- Zone or ZoneList or Space or SpaceList Name
    AirEx_ConditionedTime_Schedule,    !- Schedule Name
    AirChanges/Hour,          !- Design Flow Rate Calculation Method
    ,                         !- Design Flow Rate
    ,                         !- Flow Rate per Floor Area
    ,                         !- Flow Rate per Exterior Surface Area
    1,                        !- Air Changes per Hour
    1,                        !- Constant Term Coefficient
    0,                        !- Temperature Term Coefficient
    0,                        !- Velocity Term Coefficient
    0;                        !- Velocity Squared Term Coefficient

ZONEINFILTRATION:DESIGNFLOWRATE,
    Infil 3,                  !- Name
    Block Poly_87_Residential_3 Storey 2,    !- Zone or ZoneList or Space or SpaceList Name
    AirEx_ConditionedTime_Schedule,    !- Schedule Name
    AirChanges/Hour,          !- Design Flow Rate Calculation Method
    ,                         !- Design Flow Rate
    ,                         !- Flow Rate per Floor Area
    ,                         !- Flow Rate per Exterior Surface Area
    1,                        !- Air Changes per Hour
    1,                        !- Constant Term Coefficient
    0,                        !- Temperature Term Coefficient
    0,                        !- Velocity Term Coefficient
    0;                        !- Velocity Squared Term Coefficient

ZONEINFILTRATION:DESIGNFLOWRATE,
    Infil 4,                  !- Name
    Block Poly_87_Residential_3 Storey 3,    !- Zone or ZoneList or Space or SpaceList Name
    AirEx_ConditionedTime_Schedule,    !- Schedule Name
    AirChanges/Hour,          !- Design Flow Rate Calculation Method
    ,                         !- Design Flow Rate
    ,                         !- Flow Rate per Floor Area
    ,                         !- Flow Rate per Exterior Surface Area
    1,                        !- Air Changes per Hour
    1,                        !- Constant Term Coefficient
    0,                        !- Temperature Term Coefficient
    0,                        !- Velocity Term Coefficient
    0;                        !- Velocity Squared Term Coefficient

ZONEINFILTRATION:DESIGNFLOWRATE,
    Infil 5,                  !- Name
    Block Poly_87_Residential_3 Storey 4,    !- Zone or ZoneList or Space or SpaceList Name
    AirEx_ConditionedTime_Schedule,    !- Schedule Name
    AirChanges/Hour,          !- Design Flow Rate Calculation Method
    ,                         !- Design Flow Rate
    ,                         !- Flow Rate per Floor Area
    ,                         !- Flow Rate per Exterior Surface Area
    1,                        !- Air Changes per Hour
    1,                        !- Constant Term Coefficient
    0,                        !- Temperature Term Coefficient
    0,                        !- Velocity Term Coefficient
    0;                        !- Velocity Squared Term Coefficient

ZONEINFILTRATION:DESIGNFLOWRATE,
    Infil 6,                  !- Name
    Block Poly_87_Residential_3 Storey 5,    !- Zone or ZoneList or Space or SpaceList Name
    AirEx_ConditionedTime_Schedule,    !- Schedule Name
    AirChanges/Hour,          !- Design Flow Rate Calculation Method
    ,                         !- Design Flow Rate
    ,                         !- Flow Rate per Floor Area
    ,                         !- Flow Rate per Exterior Surface Area
    1,                        !- Air Changes per Hour
    1,                        !- Constant Term Coefficient
    0,                        !- Temperature Term Coefficient
    0,                        !- Velocity Term Coefficient
    0;                        !- Velocity Squared Term Coefficient

ZONEINFILTRATION:DESIGNFLOWRATE,
    Infil 7,                  !- Name
    Block Poly_87_Residential_3 Storey 6,    !- Zone or ZoneList or Space or SpaceList Name
    AirEx_ConditionedTime_Schedule,    !- Schedule Name
    AirChanges/Hour,          !- Design Flow Rate Calculation Method
    ,                         !- Design Flow Rate
    ,                         !- Flow Rate per Floor Area
    ,                         !- Flow Rate per Exterior Surface Area
    1,                        !- Air Changes per Hour
    1,                        !- Constant Term Coefficient
    0,                        !- Temperature Term Coefficient
    0,                        !- Velocity Term Coefficient
    0;                        !- Velocity Squared Term Coefficient

ZONEINFILTRATION:DESIGNFLOWRATE,
    Infil 8,                  !- Name
    Block Poly_87_Residential_3 Storey 7,    !- Zone or ZoneList or Space or SpaceList Name
    AirEx_ConditionedTime_Schedule,    !- Schedule Name
    AirChanges/Hour,          !- Design Flow Rate Calculation Method
    ,                         !- Design Flow Rate
    ,                         !- Flow Rate per Floor Area
    ,                         !- Flow Rate per Exterior Surface Area
    1,                        !- Air Changes per Hour
    1,                        !- Constant Term Coefficient
    0,                        !- Temperature Term Coefficient
    0,                        !- Velocity Term Coefficient
    0;                        !- Velocity Squared Term Coefficient

ZONEINFILTRATION:DESIGNFLOWRATE,
    Infil 9,                  !- Name
    Block Poly_87_Residential_3 Storey 8,    !- Zone or ZoneList or Space or SpaceList Name
    AirEx_ConditionedTime_Schedule,    !- Schedule Name
    AirChanges/Hour,          !- Design Flow Rate Calculation Method
    ,                         !- Design Flow Rate
    ,                         !- Flow Rate per Floor Area
    ,                         !- Flow Rate per Exterior Surface Area
    1,                        !- Air Changes per Hour
    1,                        !- Constant Term Coefficient
    0,                        !- Temperature Term Coefficient
    0,                        !- Velocity Term Coefficient
    0;                        !- Velocity Squared Term Coefficient

ZONEINFILTRATION:DESIGNFLOWRATE,
    Infil 10,                 !- Name
    Block Poly_87_Residential_3 Storey 9,    !- Zone or ZoneList or Space or SpaceList Name
    AirEx_ConditionedTime_Schedule,    !- Schedule Name
    AirChanges/Hour,          !- Design Flow Rate Calculation Method
    ,                         !- Design Flow Rate
    ,                         !- Flow Rate per Floor Area
    ,                         !- Flow Rate per Exterior Surface Area
    1,                        !- Air Changes per Hour
    1,                        !- Constant Term Coefficient
    0,                        !- Temperature Term Coefficient
    0,                        !- Velocity Term Coefficient
    0;                        !- Velocity Squared Term Coefficient

ZONEINFILTRATION:DESIGNFLOWRATE,
    Infil 11,                 !- Name
    Block Poly_87_Residential_3 Storey 10,    !- Zone or ZoneList or Space or SpaceList Name
    AirEx_ConditionedTime_Schedule,    !- Schedule Name
    AirChanges/Hour,          !- Design Flow Rate Calculation Method
    ,                         !- Design Flow Rate
    ,                         !- Flow Rate per Floor Area
    ,                         !- Flow Rate per Exterior Surface Area
    1,                        !- Air Changes per Hour
    1,                        !- Constant Term Coefficient
    0,                        !- Temperature Term Coefficient
    0,                        !- Velocity Term Coefficient
    0;                        !- Velocity Squared Term Coefficient

ZONEINFILTRATION:DESIGNFLOWRATE,
    Infil 12,                 !- Name
    Block Poly_87_Residential_3 Storey 11,    !- Zone or ZoneList or Space or SpaceList Name
    AirEx_ConditionedTime_Schedule,    !- Schedule Name
    AirChanges/Hour,          !- Design Flow Rate Calculation Method
    ,                         !- Design Flow Rate
    ,                         !- Flow Rate per Floor Area
    ,                         !- Flow Rate per Exterior Surface Area
    1,                        !- Air Changes per Hour
    1,                        !- Constant Term Coefficient
    0,                        !- Temperature Term Coefficient
    0,                        !- Velocity Term Coefficient
    0;                        !- Velocity Squared Term Coefficient

ZONEINFILTRATION:DESIGNFLOWRATE,
    Infil 13,                 !- Name
    Block Poly_87_Residential_3 Storey 12,    !- Zone or ZoneList or Space or SpaceList Name
    AirEx_ConditionedTime_Schedule,    !- Schedule Name
    AirChanges/Hour,          !- Design Flow Rate Calculation Method
    ,                         !- Design Flow Rate
    ,                         !- Flow Rate per Floor Area
    ,                         !- Flow Rate per Exterior Surface Area
    1,                        !- Air Changes per Hour
    1,                        !- Constant Term Coefficient
    0,                        !- Temperature Term Coefficient
    0,                        !- Velocity Term Coefficient
    0;                        !- Velocity Squared Term Coefficient

ZONEINFILTRATION:DESIGNFLOWRATE,
    Infil 14,                 !- Name
    Block Poly_87_Residential_3 Storey 13,    !- Zone or ZoneList or Space or SpaceList Name
    AirEx_ConditionedTime_Schedule,    !- Schedule Name
    AirChanges/Hour,          !- Design Flow Rate Calculation Method
    ,                         !- Design Flow Rate
    ,                         !- Flow Rate per Floor Area
    ,                         !- Flow Rate per Exterior Surface Area
    1,                        !- Air Changes per Hour
    1,                        !- Constant Term Coefficient
    0,                        !- Temperature Term Coefficient
    0,                        !- Velocity Term Coefficient
    0;                        !- Velocity Squared Term Coefficient

ZONEINFILTRATION:DESIGNFLOWRATE,
    Infil 15,                 !- Name
    Block Poly_87_Residential_3 Storey 14,    !- Zone or ZoneList or Space or SpaceList Name
    AirEx_ConditionedTime_Schedule,    !- Schedule Name
    AirChanges/Hour,          !- Design Flow Rate Calculation Method
    ,                         !- Design Flow Rate
    ,                         !- Flow Rate per Floor Area
    ,                         !- Flow Rate per Exterior Surface Area
    1,                        !- Air Changes per Hour
    1,                        !- Constant Term Coefficient
    0,                        !- Temperature Term Coefficient
    0,                        !- Velocity Term Coefficient
    0;                        !- Velocity Squared Term Coefficient

ZONEINFILTRATION:DESIGNFLOWRATE,
    Infil 16,                 !- Name
    Block Poly_87_Residential_3 Storey 15,    !- Zone or ZoneList or Space or SpaceList Name
    AirEx_ConditionedTime_Schedule,    !- Schedule Name
    AirChanges/Hour,          !- Design Flow Rate Calculation Method
    ,                         !- Design Flow Rate
    ,                         !- Flow Rate per Floor Area
    ,                         !- Flow Rate per Exterior Surface Area
    1,                        !- Air Changes per Hour
    1,                        !- Constant Term Coefficient
    0,                        !- Temperature Term Coefficient
    0,                        !- Velocity Term Coefficient
    0;                        !- Velocity Squared Term Coefficient

ZONEINFILTRATION:DESIGNFLOWRATE,
    Infil 17,                 !- Name
    Block Poly_87_Residential_3 Storey 16,    !- Zone or ZoneList or Space or SpaceList Name
    AirEx_ConditionedTime_Schedule,    !- Schedule Name
    AirChanges/Hour,          !- Design Flow Rate Calculation Method
    ,                         !- Design Flow Rate
    ,                         !- Flow Rate per Floor Area
    ,                         !- Flow Rate per Exterior Surface Area
    1,                        !- Air Changes per Hour
    1,                        !- Constant Term Coefficient
    0,                        !- Temperature Term Coefficient
    0,                        !- Velocity Term Coefficient
    0;                        !- Velocity Squared Term Coefficient

ZONEINFILTRATION:DESIGNFLOWRATE,
    Infil 18,                 !- Name
    Block Poly_87_Residential_3 Storey 17,    !- Zone or ZoneList or Space or SpaceList Name
    AirEx_ConditionedTime_Schedule,    !- Schedule Name
    AirChanges/Hour,          !- Design Flow Rate Calculation Method
    ,                         !- Design Flow Rate
    ,                         !- Flow Rate per Floor Area
    ,                         !- Flow Rate per Exterior Surface Area
    1,                        !- Air Changes per Hour
    1,                        !- Constant Term Coefficient
    0,                        !- Temperature Term Coefficient
    0,                        !- Velocity Term Coefficient
    0;                        !- Velocity Squared Term Coefficient

ZONEINFILTRATION:DESIGNFLOWRATE,
    Infil 19,                 !- Name
    Block Poly_87_Residential_3 Storey 18,    !- Zone or ZoneList or Space or SpaceList Name
    AirEx_ConditionedTime_Schedule,    !- Schedule Name
    AirChanges/Hour,          !- Design Flow Rate Calculation Method
    ,                         !- Design Flow Rate
    ,                         !- Flow Rate per Floor Area
    ,                         !- Flow Rate per Exterior Surface Area
    1,                        !- Air Changes per Hour
    1,                        !- Constant Term Coefficient
    0,                        !- Temperature Term Coefficient
    0,                        !- Velocity Term Coefficient
    0;                        !- Velocity Squared Term Coefficient

ZONEINFILTRATION:DESIGNFLOWRATE,
    Infil 20,                 !- Name
    Block Poly_87_Residential_3 Storey 19,    !- Zone or ZoneList or Space or SpaceList Name
    AirEx_ConditionedTime_Schedule,    !- Schedule Name
    AirChanges/Hour,          !- Design Flow Rate Calculation Method
    ,                         !- Design Flow Rate
    ,                         !- Flow Rate per Floor Area
    ,                         !- Flow Rate per Exterior Surface Area
    1,                        !- Air Changes per Hour
    1,                        !- Constant Term Coefficient
    0,                        !- Temperature Term Coefficient
    0,                        !- Velocity Term Coefficient
    0;                        !- Velocity Squared Term Coefficient

ZONEINFILTRATION:DESIGNFLOWRATE,
    Infil 21,                 !- Name
    Block Poly_87_Residential_3 Storey 20,    !- Zone or ZoneList or Space or SpaceList Name
    AirEx_ConditionedTime_Schedule,    !- Schedule Name
    AirChanges/Hour,          !- Design Flow Rate Calculation Method
    ,                         !- Design Flow Rate
    ,                         !- Flow Rate per Floor Area
    ,                         !- Flow Rate per Exterior Surface Area
    1,                        !- Air Changes per Hour
    1,                        !- Constant Term Coefficient
    0,                        !- Temperature Term Coefficient
    0,                        !- Velocity Term Coefficient
    0;                        !- Velocity Squared Term Coefficient

ZONEINFILTRATION:DESIGNFLOWRATE,
    Infil 22,                 !- Name
    Block Poly_87_Residential_3 Storey 21,    !- Zone or ZoneList or Space or SpaceList Name
    AirEx_ConditionedTime_Schedule,    !- Schedule Name
    AirChanges/Hour,          !- Design Flow Rate Calculation Method
    ,                         !- Design Flow Rate
    ,                         !- Flow Rate per Floor Area
    ,                         !- Flow Rate per Exterior Surface Area
    1,                        !- Air Changes per Hour
    1,                        !- Constant Term Coefficient
    0,                        !- Temperature Term Coefficient
    0,                        !- Velocity Term Coefficient
    0;                        !- Velocity Squared Term Coefficient

HVACTEMPLATE:THERMOSTAT,
    HVACTemp,                 !- Name
    Heating_SP_Schedule,      !- Heating Setpoint Schedule Name
    ,                         !- Constant Heating Setpoint
    Cooling_SP_Schedule;      !- Cooling Setpoint Schedule Name

HVACTEMPLATE:ZONE:IDEALLOADSAIRSYSTEM,
    Block Poly_87_Residential_3 Storey 0,    !- Zone Name
    HVACTemp,                 !- Template Thermostat Name
    HVAC_ConditionedTime_Schedule,    !- System Availability Schedule Name
    50,                       !- Maximum Heating Supply Air Temperature
    13,                       !- Minimum Cooling Supply Air Temperature
    0.0156,                   !- Maximum Heating Supply Air Humidity Ratio
    0.0077,                   !- Minimum Cooling Supply Air Humidity Ratio
    NoLimit,                  !- Heating Limit
    ,                         !- Maximum Heating Air Flow Rate
    ,                         !- Maximum Sensible Heating Capacity
    NoLimit,                  !- Cooling Limit
    ,                         !- Maximum Cooling Air Flow Rate
    ,                         !- Maximum Total Cooling Capacity
    Heating_Period_Schedule,    !- Heating Availability Schedule Name
    Cooling_Period_Schedule,    !- Cooling Availability Schedule Name
    ConstantSensibleHeatRatio,    !- Dehumidification Control Type
    0.7,                      !- Cooling Sensible Heat Ratio
    60,                       !- Dehumidification Setpoint
    None,                     !- Humidification Control Type
    30,                       !- Humidification Setpoint
    None,                     !- Outdoor Air Method
    0.00944,                  !- Outdoor Air Flow Rate per Person
    0,                        !- Outdoor Air Flow Rate per Zone Floor Area
    0,                        !- Outdoor Air Flow Rate per Zone
    ,                         !- Design Specification Outdoor Air Object Name
    None,                     !- Demand Controlled Ventilation Type
    NoEconomizer,             !- Outdoor Air Economizer Type
    None,                     !- Heat Recovery Type
    0.7,                      !- Sensible Heat Recovery Effectiveness
    0.65;                     !- Latent Heat Recovery Effectiveness

HVACTEMPLATE:ZONE:IDEALLOADSAIRSYSTEM,
    Block Poly_87_Residential_3 Storey 1,    !- Zone Name
    HVACTemp,                 !- Template Thermostat Name
    HVAC_ConditionedTime_Schedule,    !- System Availability Schedule Name
    50,                       !- Maximum Heating Supply Air Temperature
    13,                       !- Minimum Cooling Supply Air Temperature
    0.0156,                   !- Maximum Heating Supply Air Humidity Ratio
    0.0077,                   !- Minimum Cooling Supply Air Humidity Ratio
    NoLimit,                  !- Heating Limit
    ,                         !- Maximum Heating Air Flow Rate
    ,                         !- Maximum Sensible Heating Capacity
    NoLimit,                  !- Cooling Limit
    ,                         !- Maximum Cooling Air Flow Rate
    ,                         !- Maximum Total Cooling Capacity
    Heating_Period_Schedule,    !- Heating Availability Schedule Name
    Cooling_Period_Schedule,    !- Cooling Availability Schedule Name
    ConstantSensibleHeatRatio,    !- Dehumidification Control Type
    0.7,                      !- Cooling Sensible Heat Ratio
    60,                       !- Dehumidification Setpoint
    None,                     !- Humidification Control Type
    30,                       !- Humidification Setpoint
    None,                     !- Outdoor Air Method
    0.00944,                  !- Outdoor Air Flow Rate per Person
    0,                        !- Outdoor Air Flow Rate per Zone Floor Area
    0,                        !- Outdoor Air Flow Rate per Zone
    ,                         !- Design Specification Outdoor Air Object Name
    None,                     !- Demand Controlled Ventilation Type
    NoEconomizer,             !- Outdoor Air Economizer Type
    None,                     !- Heat Recovery Type
    0.7,                      !- Sensible Heat Recovery Effectiveness
    0.65;                     !- Latent Heat Recovery Effectiveness

HVACTEMPLATE:ZONE:IDEALLOADSAIRSYSTEM,
    Block Poly_87_Residential_3 Storey 2,    !- Zone Name
    HVACTemp,                 !- Template Thermostat Name
    HVAC_ConditionedTime_Schedule,    !- System Availability Schedule Name
    50,                       !- Maximum Heating Supply Air Temperature
    13,                       !- Minimum Cooling Supply Air Temperature
    0.0156,                   !- Maximum Heating Supply Air Humidity Ratio
    0.0077,                   !- Minimum Cooling Supply Air Humidity Ratio
    NoLimit,                  !- Heating Limit
    ,                         !- Maximum Heating Air Flow Rate
    ,                         !- Maximum Sensible Heating Capacity
    NoLimit,                  !- Cooling Limit
    ,                         !- Maximum Cooling Air Flow Rate
    ,                         !- Maximum Total Cooling Capacity
    Heating_Period_Schedule,    !- Heating Availability Schedule Name
    Cooling_Period_Schedule,    !- Cooling Availability Schedule Name
    ConstantSensibleHeatRatio,    !- Dehumidification Control Type
    0.7,                      !- Cooling Sensible Heat Ratio
    60,                       !- Dehumidification Setpoint
    None,                     !- Humidification Control Type
    30,                       !- Humidification Setpoint
    None,                     !- Outdoor Air Method
    0.00944,                  !- Outdoor Air Flow Rate per Person
    0,                        !- Outdoor Air Flow Rate per Zone Floor Area
    0,                        !- Outdoor Air Flow Rate per Zone
    ,                         !- Design Specification Outdoor Air Object Name
    None,                     !- Demand Controlled Ventilation Type
    NoEconomizer,             !- Outdoor Air Economizer Type
    None,                     !- Heat Recovery Type
    0.7,                      !- Sensible Heat Recovery Effectiveness
    0.65;                     !- Latent Heat Recovery Effectiveness

HVACTEMPLATE:ZONE:IDEALLOADSAIRSYSTEM,
    Block Poly_87_Residential_3 Storey 3,    !- Zone Name
    HVACTemp,                 !- Template Thermostat Name
    HVAC_ConditionedTime_Schedule,    !- System Availability Schedule Name
    50,                       !- Maximum Heating Supply Air Temperature
    13,                       !- Minimum Cooling Supply Air Temperature
    0.0156,                   !- Maximum Heating Supply Air Humidity Ratio
    0.0077,                   !- Minimum Cooling Supply Air Humidity Ratio
    NoLimit,                  !- Heating Limit
    ,                         !- Maximum Heating Air Flow Rate
    ,                         !- Maximum Sensible Heating Capacity
    NoLimit,                  !- Cooling Limit
    ,                         !- Maximum Cooling Air Flow Rate
    ,                         !- Maximum Total Cooling Capacity
    Heating_Period_Schedule,    !- Heating Availability Schedule Name
    Cooling_Period_Schedule,    !- Cooling Availability Schedule Name
    ConstantSensibleHeatRatio,    !- Dehumidification Control Type
    0.7,                      !- Cooling Sensible Heat Ratio
    60,                       !- Dehumidification Setpoint
    None,                     !- Humidification Control Type
    30,                       !- Humidification Setpoint
    None,                     !- Outdoor Air Method
    0.00944,                  !- Outdoor Air Flow Rate per Person
    0,                        !- Outdoor Air Flow Rate per Zone Floor Area
    0,                        !- Outdoor Air Flow Rate per Zone
    ,                         !- Design Specification Outdoor Air Object Name
    None,                     !- Demand Controlled Ventilation Type
    NoEconomizer,             !- Outdoor Air Economizer Type
    None,                     !- Heat Recovery Type
    0.7,                      !- Sensible Heat Recovery Effectiveness
    0.65;                     !- Latent Heat Recovery Effectiveness

HVACTEMPLATE:ZONE:IDEALLOADSAIRSYSTEM,
    Block Poly_87_Residential_3 Storey 4,    !- Zone Name
    HVACTemp,                 !- Template Thermostat Name
    HVAC_ConditionedTime_Schedule,    !- System Availability Schedule Name
    50,                       !- Maximum Heating Supply Air Temperature
    13,                       !- Minimum Cooling Supply Air Temperature
    0.0156,                   !- Maximum Heating Supply Air Humidity Ratio
    0.0077,                   !- Minimum Cooling Supply Air Humidity Ratio
    NoLimit,                  !- Heating Limit
    ,                         !- Maximum Heating Air Flow Rate
    ,                         !- Maximum Sensible Heating Capacity
    NoLimit,                  !- Cooling Limit
    ,                         !- Maximum Cooling Air Flow Rate
    ,                         !- Maximum Total Cooling Capacity
    Heating_Period_Schedule,    !- Heating Availability Schedule Name
    Cooling_Period_Schedule,    !- Cooling Availability Schedule Name
    ConstantSensibleHeatRatio,    !- Dehumidification Control Type
    0.7,                      !- Cooling Sensible Heat Ratio
    60,                       !- Dehumidification Setpoint
    None,                     !- Humidification Control Type
    30,                       !- Humidification Setpoint
    None,                     !- Outdoor Air Method
    0.00944,                  !- Outdoor Air Flow Rate per Person
    0,                        !- Outdoor Air Flow Rate per Zone Floor Area
    0,                        !- Outdoor Air Flow Rate per Zone
    ,                         !- Design Specification Outdoor Air Object Name
    None,                     !- Demand Controlled Ventilation Type
    NoEconomizer,             !- Outdoor Air Economizer Type
    None,                     !- Heat Recovery Type
    0.7,                      !- Sensible Heat Recovery Effectiveness
    0.65;                     !- Latent Heat Recovery Effectiveness

HVACTEMPLATE:ZONE:IDEALLOADSAIRSYSTEM,
    Block Poly_87_Residential_3 Storey 5,    !- Zone Name
    HVACTemp,                 !- Template Thermostat Name
    HVAC_ConditionedTime_Schedule,    !- System Availability Schedule Name
    50,                       !- Maximum Heating Supply Air Temperature
    13,                       !- Minimum Cooling Supply Air Temperature
    0.0156,                   !- Maximum Heating Supply Air Humidity Ratio
    0.0077,                   !- Minimum Cooling Supply Air Humidity Ratio
    NoLimit,                  !- Heating Limit
    ,                         !- Maximum Heating Air Flow Rate
    ,                         !- Maximum Sensible Heating Capacity
    NoLimit,                  !- Cooling Limit
    ,                         !- Maximum Cooling Air Flow Rate
    ,                         !- Maximum Total Cooling Capacity
    Heating_Period_Schedule,    !- Heating Availability Schedule Name
    Cooling_Period_Schedule,    !- Cooling Availability Schedule Name
    ConstantSensibleHeatRatio,    !- Dehumidification Control Type
    0.7,                      !- Cooling Sensible Heat Ratio
    60,                       !- Dehumidification Setpoint
    None,                     !- Humidification Control Type
    30,                       !- Humidification Setpoint
    None,                     !- Outdoor Air Method
    0.00944,                  !- Outdoor Air Flow Rate per Person
    0,                        !- Outdoor Air Flow Rate per Zone Floor Area
    0,                        !- Outdoor Air Flow Rate per Zone
    ,                         !- Design Specification Outdoor Air Object Name
    None,                     !- Demand Controlled Ventilation Type
    NoEconomizer,             !- Outdoor Air Economizer Type
    None,                     !- Heat Recovery Type
    0.7,                      !- Sensible Heat Recovery Effectiveness
    0.65;                     !- Latent Heat Recovery Effectiveness

HVACTEMPLATE:ZONE:IDEALLOADSAIRSYSTEM,
    Block Poly_87_Residential_3 Storey 6,    !- Zone Name
    HVACTemp,                 !- Template Thermostat Name
    HVAC_ConditionedTime_Schedule,    !- System Availability Schedule Name
    50,                       !- Maximum Heating Supply Air Temperature
    13,                       !- Minimum Cooling Supply Air Temperature
    0.0156,                   !- Maximum Heating Supply Air Humidity Ratio
    0.0077,                   !- Minimum Cooling Supply Air Humidity Ratio
    NoLimit,                  !- Heating Limit
    ,                         !- Maximum Heating Air Flow Rate
    ,                         !- Maximum Sensible Heating Capacity
    NoLimit,                  !- Cooling Limit
    ,                         !- Maximum Cooling Air Flow Rate
    ,                         !- Maximum Total Cooling Capacity
    Heating_Period_Schedule,    !- Heating Availability Schedule Name
    Cooling_Period_Schedule,    !- Cooling Availability Schedule Name
    ConstantSensibleHeatRatio,    !- Dehumidification Control Type
    0.7,                      !- Cooling Sensible Heat Ratio
    60,                       !- Dehumidification Setpoint
    None,                     !- Humidification Control Type
    30,                       !- Humidification Setpoint
    None,                     !- Outdoor Air Method
    0.00944,                  !- Outdoor Air Flow Rate per Person
    0,                        !- Outdoor Air Flow Rate per Zone Floor Area
    0,                        !- Outdoor Air Flow Rate per Zone
    ,                         !- Design Specification Outdoor Air Object Name
    None,                     !- Demand Controlled Ventilation Type
    NoEconomizer,             !- Outdoor Air Economizer Type
    None,                     !- Heat Recovery Type
    0.7,                      !- Sensible Heat Recovery Effectiveness
    0.65;                     !- Latent Heat Recovery Effectiveness

HVACTEMPLATE:ZONE:IDEALLOADSAIRSYSTEM,
    Block Poly_87_Residential_3 Storey 7,    !- Zone Name
    HVACTemp,                 !- Template Thermostat Name
    HVAC_ConditionedTime_Schedule,    !- System Availability Schedule Name
    50,                       !- Maximum Heating Supply Air Temperature
    13,                       !- Minimum Cooling Supply Air Temperature
    0.0156,                   !- Maximum Heating Supply Air Humidity Ratio
    0.0077,                   !- Minimum Cooling Supply Air Humidity Ratio
    NoLimit,                  !- Heating Limit
    ,                         !- Maximum Heating Air Flow Rate
    ,                         !- Maximum Sensible Heating Capacity
    NoLimit,                  !- Cooling Limit
    ,                         !- Maximum Cooling Air Flow Rate
    ,                         !- Maximum Total Cooling Capacity
    Heating_Period_Schedule,    !- Heating Availability Schedule Name
    Cooling_Period_Schedule,    !- Cooling Availability Schedule Name
    ConstantSensibleHeatRatio,    !- Dehumidification Control Type
    0.7,                      !- Cooling Sensible Heat Ratio
    60,                       !- Dehumidification Setpoint
    None,                     !- Humidification Control Type
    30,                       !- Humidification Setpoint
    None,                     !- Outdoor Air Method
    0.00944,                  !- Outdoor Air Flow Rate per Person
    0,                        !- Outdoor Air Flow Rate per Zone Floor Area
    0,                        !- Outdoor Air Flow Rate per Zone
    ,                         !- Design Specification Outdoor Air Object Name
    None,                     !- Demand Controlled Ventilation Type
    NoEconomizer,             !- Outdoor Air Economizer Type
    None,                     !- Heat Recovery Type
    0.7,                      !- Sensible Heat Recovery Effectiveness
    0.65;                     !- Latent Heat Recovery Effectiveness

HVACTEMPLATE:ZONE:IDEALLOADSAIRSYSTEM,
    Block Poly_87_Residential_3 Storey 8,    !- Zone Name
    HVACTemp,                 !- Template Thermostat Name
    HVAC_ConditionedTime_Schedule,    !- System Availability Schedule Name
    50,                       !- Maximum Heating Supply Air Temperature
    13,                       !- Minimum Cooling Supply Air Temperature
    0.0156,                   !- Maximum Heating Supply Air Humidity Ratio
    0.0077,                   !- Minimum Cooling Supply Air Humidity Ratio
    NoLimit,                  !- Heating Limit
    ,                         !- Maximum Heating Air Flow Rate
    ,                         !- Maximum Sensible Heating Capacity
    NoLimit,                  !- Cooling Limit
    ,                         !- Maximum Cooling Air Flow Rate
    ,                         !- Maximum Total Cooling Capacity
    Heating_Period_Schedule,    !- Heating Availability Schedule Name
    Cooling_Period_Schedule,    !- Cooling Availability Schedule Name
    ConstantSensibleHeatRatio,    !- Dehumidification Control Type
    0.7,                      !- Cooling Sensible Heat Ratio
    60,                       !- Dehumidification Setpoint
    None,                     !- Humidification Control Type
    30,                       !- Humidification Setpoint
    None,                     !- Outdoor Air Method
    0.00944,                  !- Outdoor Air Flow Rate per Person
    0,                        !- Outdoor Air Flow Rate per Zone Floor Area
    0,                        !- Outdoor Air Flow Rate per Zone
    ,                         !- Design Specification Outdoor Air Object Name
    None,                     !- Demand Controlled Ventilation Type
    NoEconomizer,             !- Outdoor Air Economizer Type
    None,                     !- Heat Recovery Type
    0.7,                      !- Sensible Heat Recovery Effectiveness
    0.65;                     !- Latent Heat Recovery Effectiveness

HVACTEMPLATE:ZONE:IDEALLOADSAIRSYSTEM,
    Block Poly_87_Residential_3 Storey 9,    !- Zone Name
    HVACTemp,                 !- Template Thermostat Name
    HVAC_ConditionedTime_Schedule,    !- System Availability Schedule Name
    50,                       !- Maximum Heating Supply Air Temperature
    13,                       !- Minimum Cooling Supply Air Temperature
    0.0156,                   !- Maximum Heating Supply Air Humidity Ratio
    0.0077,                   !- Minimum Cooling Supply Air Humidity Ratio
    NoLimit,                  !- Heating Limit
    ,                         !- Maximum Heating Air Flow Rate
    ,                         !- Maximum Sensible Heating Capacity
    NoLimit,                  !- Cooling Limit
    ,                         !- Maximum Cooling Air Flow Rate
    ,                         !- Maximum Total Cooling Capacity
    Heating_Period_Schedule,    !- Heating Availability Schedule Name
    Cooling_Period_Schedule,    !- Cooling Availability Schedule Name
    ConstantSensibleHeatRatio,    !- Dehumidification Control Type
    0.7,                      !- Cooling Sensible Heat Ratio
    60,                       !- Dehumidification Setpoint
    None,                     !- Humidification Control Type
    30,                       !- Humidification Setpoint
    None,                     !- Outdoor Air Method
    0.00944,                  !- Outdoor Air Flow Rate per Person
    0,                        !- Outdoor Air Flow Rate per Zone Floor Area
    0,                        !- Outdoor Air Flow Rate per Zone
    ,                         !- Design Specification Outdoor Air Object Name
    None,                     !- Demand Controlled Ventilation Type
    NoEconomizer,             !- Outdoor Air Economizer Type
    None,                     !- Heat Recovery Type
    0.7,                      !- Sensible Heat Recovery Effectiveness
    0.65;                     !- Latent Heat Recovery Effectiveness

HVACTEMPLATE:ZONE:IDEALLOADSAIRSYSTEM,
    Block Poly_87_Residential_3 Storey 10,    !- Zone Name
    HVACTemp,                 !- Template Thermostat Name
    HVAC_ConditionedTime_Schedule,    !- System Availability Schedule Name
    50,                       !- Maximum Heating Supply Air Temperature
    13,                       !- Minimum Cooling Supply Air Temperature
    0.0156,                   !- Maximum Heating Supply Air Humidity Ratio
    0.0077,                   !- Minimum Cooling Supply Air Humidity Ratio
    NoLimit,                  !- Heating Limit
    ,                         !- Maximum Heating Air Flow Rate
    ,                         !- Maximum Sensible Heating Capacity
    NoLimit,                  !- Cooling Limit
    ,                         !- Maximum Cooling Air Flow Rate
    ,                         !- Maximum Total Cooling Capacity
    Heating_Period_Schedule,    !- Heating Availability Schedule Name
    Cooling_Period_Schedule,    !- Cooling Availability Schedule Name
    ConstantSensibleHeatRatio,    !- Dehumidification Control Type
    0.7,                      !- Cooling Sensible Heat Ratio
    60,                       !- Dehumidification Setpoint
    None,                     !- Humidification Control Type
    30,                       !- Humidification Setpoint
    None,                     !- Outdoor Air Method
    0.00944,                  !- Outdoor Air Flow Rate per Person
    0,                        !- Outdoor Air Flow Rate per Zone Floor Area
    0,                        !- Outdoor Air Flow Rate per Zone
    ,                         !- Design Specification Outdoor Air Object Name
    None,                     !- Demand Controlled Ventilation Type
    NoEconomizer,             !- Outdoor Air Economizer Type
    None,                     !- Heat Recovery Type
    0.7,                      !- Sensible Heat Recovery Effectiveness
    0.65;                     !- Latent Heat Recovery Effectiveness

HVACTEMPLATE:ZONE:IDEALLOADSAIRSYSTEM,
    Block Poly_87_Residential_3 Storey 11,    !- Zone Name
    HVACTemp,                 !- Template Thermostat Name
    HVAC_ConditionedTime_Schedule,    !- System Availability Schedule Name
    50,                       !- Maximum Heating Supply Air Temperature
    13,                       !- Minimum Cooling Supply Air Temperature
    0.0156,                   !- Maximum Heating Supply Air Humidity Ratio
    0.0077,                   !- Minimum Cooling Supply Air Humidity Ratio
    NoLimit,                  !- Heating Limit
    ,                         !- Maximum Heating Air Flow Rate
    ,                         !- Maximum Sensible Heating Capacity
    NoLimit,                  !- Cooling Limit
    ,                         !- Maximum Cooling Air Flow Rate
    ,                         !- Maximum Total Cooling Capacity
    Heating_Period_Schedule,    !- Heating Availability Schedule Name
    Cooling_Period_Schedule,    !- Cooling Availability Schedule Name
    ConstantSensibleHeatRatio,    !- Dehumidification Control Type
    0.7,                      !- Cooling Sensible Heat Ratio
    60,                       !- Dehumidification Setpoint
    None,                     !- Humidification Control Type
    30,                       !- Humidification Setpoint
    None,                     !- Outdoor Air Method
    0.00944,                  !- Outdoor Air Flow Rate per Person
    0,                        !- Outdoor Air Flow Rate per Zone Floor Area
    0,                        !- Outdoor Air Flow Rate per Zone
    ,                         !- Design Specification Outdoor Air Object Name
    None,                     !- Demand Controlled Ventilation Type
    NoEconomizer,             !- Outdoor Air Economizer Type
    None,                     !- Heat Recovery Type
    0.7,                      !- Sensible Heat Recovery Effectiveness
    0.65;                     !- Latent Heat Recovery Effectiveness

HVACTEMPLATE:ZONE:IDEALLOADSAIRSYSTEM,
    Block Poly_87_Residential_3 Storey 12,    !- Zone Name
    HVACTemp,                 !- Template Thermostat Name
    HVAC_ConditionedTime_Schedule,    !- System Availability Schedule Name
    50,                       !- Maximum Heating Supply Air Temperature
    13,                       !- Minimum Cooling Supply Air Temperature
    0.0156,                   !- Maximum Heating Supply Air Humidity Ratio
    0.0077,                   !- Minimum Cooling Supply Air Humidity Ratio
    NoLimit,                  !- Heating Limit
    ,                         !- Maximum Heating Air Flow Rate
    ,                         !- Maximum Sensible Heating Capacity
    NoLimit,                  !- Cooling Limit
    ,                         !- Maximum Cooling Air Flow Rate
    ,                         !- Maximum Total Cooling Capacity
    Heating_Period_Schedule,    !- Heating Availability Schedule Name
    Cooling_Period_Schedule,    !- Cooling Availability Schedule Name
    ConstantSensibleHeatRatio,    !- Dehumidification Control Type
    0.7,                      !- Cooling Sensible Heat Ratio
    60,                       !- Dehumidification Setpoint
    None,                     !- Humidification Control Type
    30,                       !- Humidification Setpoint
    None,                     !- Outdoor Air Method
    0.00944,                  !- Outdoor Air Flow Rate per Person
    0,                        !- Outdoor Air Flow Rate per Zone Floor Area
    0,                        !- Outdoor Air Flow Rate per Zone
    ,                         !- Design Specification Outdoor Air Object Name
    None,                     !- Demand Controlled Ventilation Type
    NoEconomizer,             !- Outdoor Air Economizer Type
    None,                     !- Heat Recovery Type
    0.7,                      !- Sensible Heat Recovery Effectiveness
    0.65;                     !- Latent Heat Recovery Effectiveness

HVACTEMPLATE:ZONE:IDEALLOADSAIRSYSTEM,
    Block Poly_87_Residential_3 Storey 13,    !- Zone Name
    HVACTemp,                 !- Template Thermostat Name
    HVAC_ConditionedTime_Schedule,    !- System Availability Schedule Name
    50,                       !- Maximum Heating Supply Air Temperature
    13,                       !- Minimum Cooling Supply Air Temperature
    0.0156,                   !- Maximum Heating Supply Air Humidity Ratio
    0.0077,                   !- Minimum Cooling Supply Air Humidity Ratio
    NoLimit,                  !- Heating Limit
    ,                         !- Maximum Heating Air Flow Rate
    ,                         !- Maximum Sensible Heating Capacity
    NoLimit,                  !- Cooling Limit
    ,                         !- Maximum Cooling Air Flow Rate
    ,                         !- Maximum Total Cooling Capacity
    Heating_Period_Schedule,    !- Heating Availability Schedule Name
    Cooling_Period_Schedule,    !- Cooling Availability Schedule Name
    ConstantSensibleHeatRatio,    !- Dehumidification Control Type
    0.7,                      !- Cooling Sensible Heat Ratio
    60,                       !- Dehumidification Setpoint
    None,                     !- Humidification Control Type
    30,                       !- Humidification Setpoint
    None,                     !- Outdoor Air Method
    0.00944,                  !- Outdoor Air Flow Rate per Person
    0,                        !- Outdoor Air Flow Rate per Zone Floor Area
    0,                        !- Outdoor Air Flow Rate per Zone
    ,                         !- Design Specification Outdoor Air Object Name
    None,                     !- Demand Controlled Ventilation Type
    NoEconomizer,             !- Outdoor Air Economizer Type
    None,                     !- Heat Recovery Type
    0.7,                      !- Sensible Heat Recovery Effectiveness
    0.65;                     !- Latent Heat Recovery Effectiveness

HVACTEMPLATE:ZONE:IDEALLOADSAIRSYSTEM,
    Block Poly_87_Residential_3 Storey 14,    !- Zone Name
    HVACTemp,                 !- Template Thermostat Name
    HVAC_ConditionedTime_Schedule,    !- System Availability Schedule Name
    50,                       !- Maximum Heating Supply Air Temperature
    13,                       !- Minimum Cooling Supply Air Temperature
    0.0156,                   !- Maximum Heating Supply Air Humidity Ratio
    0.0077,                   !- Minimum Cooling Supply Air Humidity Ratio
    NoLimit,                  !- Heating Limit
    ,                         !- Maximum Heating Air Flow Rate
    ,                         !- Maximum Sensible Heating Capacity
    NoLimit,                  !- Cooling Limit
    ,                         !- Maximum Cooling Air Flow Rate
    ,                         !- Maximum Total Cooling Capacity
    Heating_Period_Schedule,    !- Heating Availability Schedule Name
    Cooling_Period_Schedule,    !- Cooling Availability Schedule Name
    ConstantSensibleHeatRatio,    !- Dehumidification Control Type
    0.7,                      !- Cooling Sensible Heat Ratio
    60,                       !- Dehumidification Setpoint
    None,                     !- Humidification Control Type
    30,                       !- Humidification Setpoint
    None,                     !- Outdoor Air Method
    0.00944,                  !- Outdoor Air Flow Rate per Person
    0,                        !- Outdoor Air Flow Rate per Zone Floor Area
    0,                        !- Outdoor Air Flow Rate per Zone
    ,                         !- Design Specification Outdoor Air Object Name
    None,                     !- Demand Controlled Ventilation Type
    NoEconomizer,             !- Outdoor Air Economizer Type
    None,                     !- Heat Recovery Type
    0.7,                      !- Sensible Heat Recovery Effectiveness
    0.65;                     !- Latent Heat Recovery Effectiveness

HVACTEMPLATE:ZONE:IDEALLOADSAIRSYSTEM,
    Block Poly_87_Residential_3 Storey 15,    !- Zone Name
    HVACTemp,                 !- Template Thermostat Name
    HVAC_ConditionedTime_Schedule,    !- System Availability Schedule Name
    50,                       !- Maximum Heating Supply Air Temperature
    13,                       !- Minimum Cooling Supply Air Temperature
    0.0156,                   !- Maximum Heating Supply Air Humidity Ratio
    0.0077,                   !- Minimum Cooling Supply Air Humidity Ratio
    NoLimit,                  !- Heating Limit
    ,                         !- Maximum Heating Air Flow Rate
    ,                         !- Maximum Sensible Heating Capacity
    NoLimit,                  !- Cooling Limit
    ,                         !- Maximum Cooling Air Flow Rate
    ,                         !- Maximum Total Cooling Capacity
    Heating_Period_Schedule,    !- Heating Availability Schedule Name
    Cooling_Period_Schedule,    !- Cooling Availability Schedule Name
    ConstantSensibleHeatRatio,    !- Dehumidification Control Type
    0.7,                      !- Cooling Sensible Heat Ratio
    60,                       !- Dehumidification Setpoint
    None,                     !- Humidification Control Type
    30,                       !- Humidification Setpoint
    None,                     !- Outdoor Air Method
    0.00944,                  !- Outdoor Air Flow Rate per Person
    0,                        !- Outdoor Air Flow Rate per Zone Floor Area
    0,                        !- Outdoor Air Flow Rate per Zone
    ,                         !- Design Specification Outdoor Air Object Name
    None,                     !- Demand Controlled Ventilation Type
    NoEconomizer,             !- Outdoor Air Economizer Type
    None,                     !- Heat Recovery Type
    0.7,                      !- Sensible Heat Recovery Effectiveness
    0.65;                     !- Latent Heat Recovery Effectiveness

HVACTEMPLATE:ZONE:IDEALLOADSAIRSYSTEM,
    Block Poly_87_Residential_3 Storey 16,    !- Zone Name
    HVACTemp,                 !- Template Thermostat Name
    HVAC_ConditionedTime_Schedule,    !- System Availability Schedule Name
    50,                       !- Maximum Heating Supply Air Temperature
    13,                       !- Minimum Cooling Supply Air Temperature
    0.0156,                   !- Maximum Heating Supply Air Humidity Ratio
    0.0077,                   !- Minimum Cooling Supply Air Humidity Ratio
    NoLimit,                  !- Heating Limit
    ,                         !- Maximum Heating Air Flow Rate
    ,                         !- Maximum Sensible Heating Capacity
    NoLimit,                  !- Cooling Limit
    ,                         !- Maximum Cooling Air Flow Rate
    ,                         !- Maximum Total Cooling Capacity
    Heating_Period_Schedule,    !- Heating Availability Schedule Name
    Cooling_Period_Schedule,    !- Cooling Availability Schedule Name
    ConstantSensibleHeatRatio,    !- Dehumidification Control Type
    0.7,                      !- Cooling Sensible Heat Ratio
    60,                       !- Dehumidification Setpoint
    None,                     !- Humidification Control Type
    30,                       !- Humidification Setpoint
    None,                     !- Outdoor Air Method
    0.00944,                  !- Outdoor Air Flow Rate per Person
    0,                        !- Outdoor Air Flow Rate per Zone Floor Area
    0,                        !- Outdoor Air Flow Rate per Zone
    ,                         !- Design Specification Outdoor Air Object Name
    None,                     !- Demand Controlled Ventilation Type
    NoEconomizer,             !- Outdoor Air Economizer Type
    None,                     !- Heat Recovery Type
    0.7,                      !- Sensible Heat Recovery Effectiveness
    0.65;                     !- Latent Heat Recovery Effectiveness

HVACTEMPLATE:ZONE:IDEALLOADSAIRSYSTEM,
    Block Poly_87_Residential_3 Storey 17,    !- Zone Name
    HVACTemp,                 !- Template Thermostat Name
    HVAC_ConditionedTime_Schedule,    !- System Availability Schedule Name
    50,                       !- Maximum Heating Supply Air Temperature
    13,                       !- Minimum Cooling Supply Air Temperature
    0.0156,                   !- Maximum Heating Supply Air Humidity Ratio
    0.0077,                   !- Minimum Cooling Supply Air Humidity Ratio
    NoLimit,                  !- Heating Limit
    ,                         !- Maximum Heating Air Flow Rate
    ,                         !- Maximum Sensible Heating Capacity
    NoLimit,                  !- Cooling Limit
    ,                         !- Maximum Cooling Air Flow Rate
    ,                         !- Maximum Total Cooling Capacity
    Heating_Period_Schedule,    !- Heating Availability Schedule Name
    Cooling_Period_Schedule,    !- Cooling Availability Schedule Name
    ConstantSensibleHeatRatio,    !- Dehumidification Control Type
    0.7,                      !- Cooling Sensible Heat Ratio
    60,                       !- Dehumidification Setpoint
    None,                     !- Humidification Control Type
    30,                       !- Humidification Setpoint
    None,                     !- Outdoor Air Method
    0.00944,                  !- Outdoor Air Flow Rate per Person
    0,                        !- Outdoor Air Flow Rate per Zone Floor Area
    0,                        !- Outdoor Air Flow Rate per Zone
    ,                         !- Design Specification Outdoor Air Object Name
    None,                     !- Demand Controlled Ventilation Type
    NoEconomizer,             !- Outdoor Air Economizer Type
    None,                     !- Heat Recovery Type
    0.7,                      !- Sensible Heat Recovery Effectiveness
    0.65;                     !- Latent Heat Recovery Effectiveness

HVACTEMPLATE:ZONE:IDEALLOADSAIRSYSTEM,
    Block Poly_87_Residential_3 Storey 18,    !- Zone Name
    HVACTemp,                 !- Template Thermostat Name
    HVAC_ConditionedTime_Schedule,    !- System Availability Schedule Name
    50,                       !- Maximum Heating Supply Air Temperature
    13,                       !- Minimum Cooling Supply Air Temperature
    0.0156,                   !- Maximum Heating Supply Air Humidity Ratio
    0.0077,                   !- Minimum Cooling Supply Air Humidity Ratio
    NoLimit,                  !- Heating Limit
    ,                         !- Maximum Heating Air Flow Rate
    ,                         !- Maximum Sensible Heating Capacity
    NoLimit,                  !- Cooling Limit
    ,                         !- Maximum Cooling Air Flow Rate
    ,                         !- Maximum Total Cooling Capacity
    Heating_Period_Schedule,    !- Heating Availability Schedule Name
    Cooling_Period_Schedule,    !- Cooling Availability Schedule Name
    ConstantSensibleHeatRatio,    !- Dehumidification Control Type
    0.7,                      !- Cooling Sensible Heat Ratio
    60,                       !- Dehumidification Setpoint
    None,                     !- Humidification Control Type
    30,                       !- Humidification Setpoint
    None,                     !- Outdoor Air Method
    0.00944,                  !- Outdoor Air Flow Rate per Person
    0,                        !- Outdoor Air Flow Rate per Zone Floor Area
    0,                        !- Outdoor Air Flow Rate per Zone
    ,                         !- Design Specification Outdoor Air Object Name
    None,                     !- Demand Controlled Ventilation Type
    NoEconomizer,             !- Outdoor Air Economizer Type
    None,                     !- Heat Recovery Type
    0.7,                      !- Sensible Heat Recovery Effectiveness
    0.65;                     !- Latent Heat Recovery Effectiveness

HVACTEMPLATE:ZONE:IDEALLOADSAIRSYSTEM,
    Block Poly_87_Residential_3 Storey 19,    !- Zone Name
    HVACTemp,                 !- Template Thermostat Name
    HVAC_ConditionedTime_Schedule,    !- System Availability Schedule Name
    50,                       !- Maximum Heating Supply Air Temperature
    13,                       !- Minimum Cooling Supply Air Temperature
    0.0156,                   !- Maximum Heating Supply Air Humidity Ratio
    0.0077,                   !- Minimum Cooling Supply Air Humidity Ratio
    NoLimit,                  !- Heating Limit
    ,                         !- Maximum Heating Air Flow Rate
    ,                         !- Maximum Sensible Heating Capacity
    NoLimit,                  !- Cooling Limit
    ,                         !- Maximum Cooling Air Flow Rate
    ,                         !- Maximum Total Cooling Capacity
    Heating_Period_Schedule,    !- Heating Availability Schedule Name
    Cooling_Period_Schedule,    !- Cooling Availability Schedule Name
    ConstantSensibleHeatRatio,    !- Dehumidification Control Type
    0.7,                      !- Cooling Sensible Heat Ratio
    60,                       !- Dehumidification Setpoint
    None,                     !- Humidification Control Type
    30,                       !- Humidification Setpoint
    None,                     !- Outdoor Air Method
    0.00944,                  !- Outdoor Air Flow Rate per Person
    0,                        !- Outdoor Air Flow Rate per Zone Floor Area
    0,                        !- Outdoor Air Flow Rate per Zone
    ,                         !- Design Specification Outdoor Air Object Name
    None,                     !- Demand Controlled Ventilation Type
    NoEconomizer,             !- Outdoor Air Economizer Type
    None,                     !- Heat Recovery Type
    0.7,                      !- Sensible Heat Recovery Effectiveness
    0.65;                     !- Latent Heat Recovery Effectiveness

HVACTEMPLATE:ZONE:IDEALLOADSAIRSYSTEM,
    Block Poly_87_Residential_3 Storey 20,    !- Zone Name
    HVACTemp,                 !- Template Thermostat Name
    HVAC_ConditionedTime_Schedule,    !- System Availability Schedule Name
    50,                       !- Maximum Heating Supply Air Temperature
    13,                       !- Minimum Cooling Supply Air Temperature
    0.0156,                   !- Maximum Heating Supply Air Humidity Ratio
    0.0077,                   !- Minimum Cooling Supply Air Humidity Ratio
    NoLimit,                  !- Heating Limit
    ,                         !- Maximum Heating Air Flow Rate
    ,                         !- Maximum Sensible Heating Capacity
    NoLimit,                  !- Cooling Limit
    ,                         !- Maximum Cooling Air Flow Rate
    ,                         !- Maximum Total Cooling Capacity
    Heating_Period_Schedule,    !- Heating Availability Schedule Name
    Cooling_Period_Schedule,    !- Cooling Availability Schedule Name
    ConstantSensibleHeatRatio,    !- Dehumidification Control Type
    0.7,                      !- Cooling Sensible Heat Ratio
    60,                       !- Dehumidification Setpoint
    None,                     !- Humidification Control Type
    30,                       !- Humidification Setpoint
    None,                     !- Outdoor Air Method
    0.00944,                  !- Outdoor Air Flow Rate per Person
    0,                        !- Outdoor Air Flow Rate per Zone Floor Area
    0,                        !- Outdoor Air Flow Rate per Zone
    ,                         !- Design Specification Outdoor Air Object Name
    None,                     !- Demand Controlled Ventilation Type
    NoEconomizer,             !- Outdoor Air Economizer Type
    None,                     !- Heat Recovery Type
    0.7,                      !- Sensible Heat Recovery Effectiveness
    0.65;                     !- Latent Heat Recovery Effectiveness

HVACTEMPLATE:ZONE:IDEALLOADSAIRSYSTEM,
    Block Poly_87_Residential_3 Storey 21,    !- Zone Name
    HVACTemp,                 !- Template Thermostat Name
    HVAC_ConditionedTime_Schedule,    !- System Availability Schedule Name
    50,                       !- Maximum Heating Supply Air Temperature
    13,                       !- Minimum Cooling Supply Air Temperature
    0.0156,                   !- Maximum Heating Supply Air Humidity Ratio
    0.0077,                   !- Minimum Cooling Supply Air Humidity Ratio
    NoLimit,                  !- Heating Limit
    ,                         !- Maximum Heating Air Flow Rate
    ,                         !- Maximum Sensible Heating Capacity
    NoLimit,                  !- Cooling Limit
    ,                         !- Maximum Cooling Air Flow Rate
    ,                         !- Maximum Total Cooling Capacity
    Heating_Period_Schedule,    !- Heating Availability Schedule Name
    Cooling_Period_Schedule,    !- Cooling Availability Schedule Name
    ConstantSensibleHeatRatio,    !- Dehumidification Control Type
    0.7,                      !- Cooling Sensible Heat Ratio
    60,                       !- Dehumidification Setpoint
    None,                     !- Humidification Control Type
    30,                       !- Humidification Setpoint
    None,                     !- Outdoor Air Method
    0.00944,                  !- Outdoor Air Flow Rate per Person
    0,                        !- Outdoor Air Flow Rate per Zone Floor Area
    0,                        !- Outdoor Air Flow Rate per Zone
    ,                         !- Design Specification Outdoor Air Object Name
    None,                     !- Demand Controlled Ventilation Type
    NoEconomizer,             !- Outdoor Air Economizer Type
    None,                     !- Heat Recovery Type
    0.7,                      !- Sensible Heat Recovery Effectiveness
    0.65;                     !- Latent Heat Recovery Effectiveness

OUTPUT:VARIABLEDICTIONARY,
    regular,                  !- Key Field
    Unsorted;                 !- Sort Option

OUTPUT:CONSTRUCTIONS,
    Constructions,            !- Details Type 1
    Constructions;            !- Details Type 2

OUTPUT:TABLE:SUMMARYREPORTS,
    AllSummary;               !- Report 1 Name

OUTPUTCONTROL:TABLE:STYLE,
    Comma,                    !- Column Separator
    JtoKWH;                   !- Unit Conversion

OUTPUT:VARIABLE,
    *,                        !- Key Value
    Zone Ideal Loads Supply Air Total Heating Rate,    !- Variable Name
    Hourly;                   !- Reporting Frequency

OUTPUT:VARIABLE,
    *,                        !- Key Value
    Zone Ideal Loads Supply Air Total Cooling Rate,    !- Variable Name
    Hourly;                   !- Reporting Frequency

OUTPUT:VARIABLE,
    *,                        !- Key Value
    Zone Ideal Loads Zone Total Heating Rate,    !- Variable Name
    Hourly;                   !- Reporting Frequency

OUTPUT:VARIABLE,
    *,                        !- Key Value
    Zone Ideal Loads Zone Total Cooling Rate,    !- Variable Name
    Hourly;                   !- Reporting Frequency

OUTPUT:VARIABLE,
    *,                        !- Key Value
    Zone Air Temperature,     !- Variable Name
    Hourly;                   !- Reporting Frequency

OUTPUT:METER:METERFILEONLY,
    DistrictCooling:Facility,    !- Key Name
    Hourly;                   !- Reporting Frequency

OUTPUT:METER:METERFILEONLY,
    DistrictHeatingWater:Facility,    !- Key Name
    Hourly;                   !- Reporting Frequency

OUTPUT:METER:METERFILEONLY,
    Electricity:Facility,     !- Key Name
    Hourly;                   !- Reporting Frequency

OUTPUT:METER:METERFILEONLY,
    Electricity:Building,     !- Key Name
    Hourly;                   !- Reporting Frequency

OUTPUT:SQLITE,
    SimpleAndTabular,         !- Option Type
    UseOutputControlTableStyle;    !- Unit Conversion for Tabular Data