!- Windows Line endings 

VERSION,
    23.2.0;                   !- Version Identifier

SIMULATIONCONTROL,
    Yes,                      !- Do Zone Sizing Calculation
    Yes,                      !- Do System Sizing Calculation
    No,                       !- Do Plant Sizing Calculation
    No,                       !- Run Simulation for Sizing Periods
    Yes,                      !- Run Simulation for Weather File Run Periods
    No,                       !- Do HVAC Sizing Simulation for Sizing Periods
    1;                        !- Maximum Number of HVAC Sizing Simulation Passes

BUILDING,
    shang4hai3shi4_Transport_6_3_2015,    !- Name
    0,                        !- North Axis
    City,                     !- Terrain
    0.04,                     !- Loads Convergence Tolerance Value
    0.4,                      !- Temperature Convergence Tolerance Value
    FullExterior,             !- Solar Distribution
    25,                       !- Maximum Number of Warmup Days
    1;                        !- Minimum Number of Warmup Days

SHADOWCALCULATION,
    PolygonClipping,          !- Shading Calculation Method
    Periodic,                 !- Shading Calculation Update Frequency Method
    20,                       !- Shading Calculation Update Frequency
    15000,                    !- Maximum Figures in Shadow Overlap Calculations
    SutherlandHodgman,        !- Polygon Clipping Algorithm
    512,                      !- Pixel Counting Resolution
    SimpleSkyDiffuseModeling,    !- Sky Diffuse Modeling Algorithm
    No,                       !- Output External Shading Calculation Results
    No,                       !- Disable SelfShading Within Shading Zone Groups
    No;                       !- Disable SelfShading From Shading Zone Groups to Other Zones

HEATBALANCEALGORITHM,
    ConductionTransferFunction,    !- Algorithm
    200,                      !- Surface Temperature Upper Limit
    ,                         !- Minimum Surface Convection Heat Transfer Coefficient Value
    ;                         !- Maximum Surface Convection Heat Transfer Coefficient Value

TIMESTEP,
    1;                        !- Number of Timesteps per Hour

CONVERGENCELIMITS,
    1,                        !- Minimum System Timestep
    20,                       !- Maximum HVAC Iterations
    2,                        !- Minimum Plant Iterations
    8;                        !- Maximum Plant Iterations

RUNPERIOD,
    Run_Period_1,             !- Name
    1,                        !- Begin Month
    1,                        !- Begin Day of Month
    ,                         !- Begin Year
    12,                       !- End Month
    31,                       !- End Day of Month
    ,                         !- End Year
    ,                         !- Day of Week for Start Day
    Yes,                      !- Use Weather File Holidays and Special Days
    Yes,                      !- Use Weather File Daylight Saving Period
    No,                       !- Apply Weekend Holiday Rule
    Yes,                      !- Use Weather File Rain Indicators
    Yes,                      !- Use Weather File Snow Indicators
    ,                         !- Treat Weather as Actual
    ;                         !- First Hour Interpolation Starting Values

SCHEDULETYPELIMITS,
    Fraction,                 !- Name
    0,                        !- Lower Limit Value
    1,                        !- Upper Limit Value
    Continuous,               !- Numeric Type
    ;                         !- Unit Type

SCHEDULETYPELIMITS,
    Temperature,              !- Name
    ,                         !- Lower Limit Value
    ,                         !- Upper Limit Value
    Continuous,               !- Numeric Type
    Temperature;              !- Unit Type

SCHEDULETYPELIMITS,
    Any Number,               !- Name
    ,                         !- Lower Limit Value
    ,                         !- Upper Limit Value
    Continuous,               !- Numeric Type
    Dimensionless;            !- Unit Type

SCHEDULETYPELIMITS,
    On/Off,                   !- Name
    ,                         !- Lower Limit Value
    ,                         !- Upper Limit Value
    ,                         !- Numeric Type
    Dimensionless;            !- Unit Type

SCHEDULE:COMPACT,
    People_Schedule,          !- Name
    Fraction,                 !- Schedule Type Limits Name
    Through: 12/31,           !- Field 1
    For: Weekdays,            !- Field 2
    Until: 05:00,             !- Field 3
    0.1,                      !- Field 4
    Until: 07:00,             !- Field 5
    0.4,                      !- Field 6
    Until: 09:00,             !- Field 7
    0.75,                     !- Field 8
    Until: 12:00,             !- Field 9
    0.6,                      !- Field 10
    Until: 15:00,             !- Field 11
    0.65,                     !- Field 12
    Until: 18:00,             !- Field 13
    0.7,                      !- Field 14
    Until: 21:00,             !- Field 15
    0.8,                      !- Field 16
    Until: 24:00,             !- Field 17
    0.25,                     !- Field 18
    For: AllOtherDays,        !- Field 19
    Until: 05:00,             !- Field 20
    0.15,                     !- Field 21
    Until: 07:00,             !- Field 22
    0.5,                      !- Field 23
    Until: 09:00,             !- Field 24
    0.85,                     !- Field 25
    Until: 12:00,             !- Field 26
    0.8,                      !- Field 27
    Until: 15:00,             !- Field 28
    0.9,                      !- Field 29
    Until: 18:00,             !- Field 30
    0.95,                     !- Field 31
    Until: 21:00,             !- Field 32
    0.95,                     !- Field 33
    Until: 24:00,             !- Field 34
    0.5;                      !- Field 35

SCHEDULE:COMPACT,
    Lights_Schedule,          !- Name
    Fraction,                 !- Schedule Type Limits Name
    Through: 12/31,           !- Field 1
    For: Weekdays,            !- Field 2
    Until: 05:00,             !- Field 3
    0.1,                      !- Field 4
    Until: 07:00,             !- Field 5
    0.45,                     !- Field 6
    Until: 09:00,             !- Field 7
    0.85,                     !- Field 8
    Until: 12:00,             !- Field 9
    0.75,                     !- Field 10
    Until: 14:00,             !- Field 11
    0.8,                      !- Field 12
    Until: 17:00,             !- Field 13
    0.65,                     !- Field 14
    Until: 20:00,             !- Field 15
    0.9,                      !- Field 16
    Until: 22:00,             !- Field 17
    0.6,                      !- Field 18
    Until: 24:00,             !- Field 19
    0.25,                     !- Field 20
    For: AllOtherDays,        !- Field 21
    Until: 24:00,             !- Field 22
    0.7;                      !- Field 23

SCHEDULE:COMPACT,
    ElectricEquipment_Schedule,    !- Name
    Fraction,                 !- Schedule Type Limits Name
    Through: 12/31,           !- Field 1
    For: Weekdays,            !- Field 2
    Until: 05:00,             !- Field 3
    0.15,                     !- Field 4
    Until: 07:00,             !- Field 5
    0.45,                     !- Field 6
    Until: 09:00,             !- Field 7
    0.85,                     !- Field 8
    Until: 12:00,             !- Field 9
    0.75,                     !- Field 10
    Until: 14:00,             !- Field 11
    0.8,                      !- Field 12
    Until: 17:00,             !- Field 13
    0.65,                     !- Field 14
    Until: 20:00,             !- Field 15
    0.9,                      !- Field 16
    Until: 22:00,             !- Field 17
    0.6,                      !- Field 18
    Until: 24:00,             !- Field 19
    0.25,                     !- Field 20
    For: AllOtherDays,        !- Field 21
    Until: 24:00,             !- Field 22
    0.7;                      !- Field 23

SCHEDULE:COMPACT,
    Heating_SP_Schedule,      !- Name
    Temperature,              !- Schedule Type Limits Name
    Through: 12/31,           !- Field 1
    For: AllDays,             !- Field 2
    Until: 05:00,             !- Field 3
    5,                        !- Field 4
    Until: 06:00,             !- Field 5
    12,                       !- Field 6
    Until: 22:00,             !- Field 7
    18,                       !- Field 8
    Until: 24:00,             !- Field 9
    12;                       !- Field 10

SCHEDULE:COMPACT,
    Cooling_SP_Schedule,      !- Name
    Temperature,              !- Schedule Type Limits Name
    Through: 12/31,           !- Field 1
    For: AllDays,             !- Field 2
    Until: 05:00,             !- Field 3
    37,                       !- Field 4
    Until: 06:00,             !- Field 5
    28,                       !- Field 6
    Until: 22:00,             !- Field 7
    25,                       !- Field 8
    Until: 24:00,             !- Field 9
    28;                       !- Field 10

SCHEDULE:COMPACT,
    Heating_Period_Schedule,    !- Name
    On/Off,                   !- Schedule Type Limits Name
    Through: 04/15,           !- Field 1
    For: AllDays,             !- Field 2
    Until: 24:00,             !- Field 3
    1,                        !- Field 4
    Through: 11/01,           !- Field 5
    For: AllDays,             !- Field 6
    Until: 24:00,             !- Field 7
    0,                        !- Field 8
    Through: 12/31,           !- Field 9
    For: AllDays,             !- Field 10
    Until: 24:00,             !- Field 11
    1;                        !- Field 12

SCHEDULE:COMPACT,
    Cooling_Period_Schedule,    !- Name
    On/Off,                   !- Schedule Type Limits Name
    Through: 04/15,           !- Field 1
    For: AllDays,             !- Field 2
    Until: 24:00,             !- Field 3
    0,                        !- Field 4
    Through: 10/31,           !- Field 5
    For: AllDays,             !- Field 6
    Until: 24:00,             !- Field 7
    1,                        !- Field 8
    Through: 12/31,           !- Field 9
    For: AllDays,             !- Field 10
    Until: 24:00,             !- Field 11
    0;                        !- Field 12

SCHEDULE:COMPACT,
    HVAC_ConditionedTime_Schedule,    !- Name
    On/Off,                   !- Schedule Type Limits Name
    Through: 12/31,           !- Field 1
    For: AllDays,             !- Field 2
    Until: 01:00,             !- Field 3
    1,                        !- Field 4
    Until: 05:00,             !- Field 5
    0,                        !- Field 6
    Until: 24:00,             !- Field 7
    1;                        !- Field 8

SCHEDULE:COMPACT,
    AirEx_ConditionedTime_Schedule,    !- Name
    Any Number,               !- Schedule Type Limits Name
    Through: 12/31,           !- Field 1
    For: AllDays,             !- Field 2
    Until: 01:00,             !- Field 3
    3,                        !- Field 4
    Until: 05:00,             !- Field 5
    0,                        !- Field 6
    Until: 24:00,             !- Field 7
    4;                        !- Field 8

SCHEDULE:COMPACT,
    CN_GenericActivityLevel,    !- Name
    Any Number,               !- Schedule Type Limits Name
    Through: 12/31,           !- Field 1
    For: Weekdays,            !- Field 2
    Until: 08:00,             !- Field 3
    80,                       !- Field 4
    Until: 18:00,             !- Field 5
    120,                      !- Field 6
    Until: 24:00,             !- Field 7
    80,                       !- Field 8
    For: AllOtherDays,        !- Field 9
    Until: 24:00,             !- Field 10
    80;                       !- Field 11

MATERIAL,
    Concrete,                 !- Name
    MediumRough,              !- Roughness
    0.1,                      !- Thickness
    1.7,                      !- Conductivity
    2240,                     !- Density
    900,                      !- Specific Heat
    0.9,                      !- Thermal Absorptance
    0.7,                      !- Solar Absorptance
    0.7;                      !- Visible Absorptance

MATERIAL,
    Brick,                    !- Name
    MediumRough,              !- Roughness
    0.1,                      !- Thickness
    0.72,                     !- Conductivity
    1920,                     !- Density
    840,                      !- Specific Heat
    0.9,                      !- Thermal Absorptance
    0.7,                      !- Solar Absorptance
    0.7;                      !- Visible Absorptance

MATERIAL,
    Tile,                     !- Name
    Smooth,                   !- Roughness
    0.02,                     !- Thickness
    1.3,                      !- Conductivity
    2200,                     !- Density
    900,                      !- Specific Heat
    0.9,                      !- Thermal Absorptance
    0.7,                      !- Solar Absorptance
    0.7;                      !- Visible Absorptance

MATERIAL,
    Gypsum,                   !- Name
    Smooth,                   !- Roughness
    0.015,                    !- Thickness
    0.16,                     !- Conductivity
    800,                      !- Density
    1090,                     !- Specific Heat
    0.9,                      !- Thermal Absorptance
    0.7,                      !- Solar Absorptance
    0.7;                      !- Visible Absorptance

MATERIAL,
    AsphaltFelt,              !- Name
    Smooth,                   !- Roughness
    0.01,                     !- Thickness
    0.2,                      !- Conductivity
    960,                      !- Density
    1000,                     !- Specific Heat
    0.9,                      !- Thermal Absorptance
    0.7,                      !- Solar Absorptance
    0.7;                      !- Visible Absorptance

MATERIAL,
    Insulation 0.003,         !- Name
    Rough,                    !- Roughness
    0.003,                    !- Thickness
    0.04,                     !- Conductivity
    40,                       !- Density
    1500,                     !- Specific Heat
    0.9,                      !- Thermal Absorptance
    0.7,                      !- Solar Absorptance
    0.7;                      !- Visible Absorptance

MATERIAL,
    Insulation 0.004,         !- Name
    Rough,                    !- Roughness
    0.004,                    !- Thickness
    0.04,                     !- Conductivity
    40,                       !- Density
    1500,                     !- Specific Heat
    0.9,                      !- Thermal Absorptance
    0.7,                      !- Solar Absorptance
    0.7;                      !- Visible Absorptance

MATERIAL,
    Insulation 0.007,         !- Name
    Rough,                    !- Roughness
    0.007,                    !- Thickness
    0.04,                     !- Conductivity
    40,                       !- Density
    1500,                     !- Specific Heat
    0.9,                      !- Thermal Absorptance
    0.7,                      !- Solar Absorptance
    0.7;                      !- Visible Absorptance

MATERIAL,
    Insulation 0.011,         !- Name
    Rough,                    !- Roughness
    0.011,                    !- Thickness
    0.04,                     !- Conductivity
    40,                       !- Density
    1500,                     !- Specific Heat
    0.9,                      !- Thermal Absorptance
    0.7,                      !- Solar Absorptance
    0.7;                      !- Visible Absorptance

MATERIAL,
    Insulation 0.012,         !- Name
    Rough,                    !- Roughness
    0.012,                    !- Thickness
    0.04,                     !- Conductivity
    40,                       !- Density
    1500,                     !- Specific Heat
    0.9,                      !- Thermal Absorptance
    0.7,                      !- Solar Absorptance
    0.7;                      !- Visible Absorptance

MATERIAL,
    Insulation 0.013,         !- Name
    Rough,                    !- Roughness
    0.013,                    !- Thickness
    0.04,                     !- Conductivity
    40,                       !- Density
    1500,                     !- Specific Heat
    0.9,                      !- Thermal Absorptance
    0.7,                      !- Solar Absorptance
    0.7;                      !- Visible Absorptance

MATERIAL,
    Insulation 0.014,         !- Name
    Rough,                    !- Roughness
    0.014,                    !- Thickness
    0.04,                     !- Conductivity
    40,                       !- Density
    1500,                     !- Specific Heat
    0.9,                      !- Thermal Absorptance
    0.7,                      !- Solar Absorptance
    0.7;                      !- Visible Absorptance

MATERIAL,
    Insulation 0.016,         !- Name
    Rough,                    !- Roughness
    0.016,                    !- Thickness
    0.04,                     !- Conductivity
    40,                       !- Density
    1500,                     !- Specific Heat
    0.9,                      !- Thermal Absorptance
    0.7,                      !- Solar Absorptance
    0.7;                      !- Visible Absorptance

MATERIAL,
    Insulation 0.017,         !- Name
    Rough,                    !- Roughness
    0.017,                    !- Thickness
    0.04,                     !- Conductivity
    40,                       !- Density
    1500,                     !- Specific Heat
    0.9,                      !- Thermal Absorptance
    0.7,                      !- Solar Absorptance
    0.7;                      !- Visible Absorptance

MATERIAL,
    Insulation 0.018,         !- Name
    Rough,                    !- Roughness
    0.018,                    !- Thickness
    0.04,                     !- Conductivity
    40,                       !- Density
    1500,                     !- Specific Heat
    0.9,                      !- Thermal Absorptance
    0.7,                      !- Solar Absorptance
    0.7;                      !- Visible Absorptance

MATERIAL,
    Insulation 0.021,         !- Name
    Rough,                    !- Roughness
    0.021,                    !- Thickness
    0.04,                     !- Conductivity
    40,                       !- Density
    1500,                     !- Specific Heat
    0.9,                      !- Thermal Absorptance
    0.7,                      !- Solar Absorptance
    0.7;                      !- Visible Absorptance

MATERIAL,
    Insulation 0.022,         !- Name
    Rough,                    !- Roughness
    0.022,                    !- Thickness
    0.04,                     !- Conductivity
    40,                       !- Density
    1500,                     !- Specific Heat
    0.9,                      !- Thermal Absorptance
    0.7,                      !- Solar Absorptance
    0.7;                      !- Visible Absorptance

MATERIAL,
    Insulation 0.024,         !- Name
    Rough,                    !- Roughness
    0.024,                    !- Thickness
    0.04,                     !- Conductivity
    40,                       !- Density
    1500,                     !- Specific Heat
    0.9,                      !- Thermal Absorptance
    0.7,                      !- Solar Absorptance
    0.7;                      !- Visible Absorptance

MATERIAL,
    Insulation 0.027,         !- Name
    Rough,                    !- Roughness
    0.027,                    !- Thickness
    0.04,                     !- Conductivity
    40,                       !- Density
    1500,                     !- Specific Heat
    0.9,                      !- Thermal Absorptance
    0.7,                      !- Solar Absorptance
    0.7;                      !- Visible Absorptance

MATERIAL,
    Insulation 0.028,         !- Name
    Rough,                    !- Roughness
    0.028,                    !- Thickness
    0.04,                     !- Conductivity
    40,                       !- Density
    1500,                     !- Specific Heat
    0.9,                      !- Thermal Absorptance
    0.7,                      !- Solar Absorptance
    0.7;                      !- Visible Absorptance

MATERIAL,
    Insulation 0.029,         !- Name
    Rough,                    !- Roughness
    0.029,                    !- Thickness
    0.04,                     !- Conductivity
    40,                       !- Density
    1500,                     !- Specific Heat
    0.9,                      !- Thermal Absorptance
    0.7,                      !- Solar Absorptance
    0.7;                      !- Visible Absorptance

MATERIAL,
    Insulation 0.032,         !- Name
    Rough,                    !- Roughness
    0.032,                    !- Thickness
    0.04,                     !- Conductivity
    40,                       !- Density
    1500,                     !- Specific Heat
    0.9,                      !- Thermal Absorptance
    0.7,                      !- Solar Absorptance
    0.7;                      !- Visible Absorptance

MATERIAL,
    Insulation 0.036,         !- Name
    Rough,                    !- Roughness
    0.036,                    !- Thickness
    0.04,                     !- Conductivity
    40,                       !- Density
    1500,                     !- Specific Heat
    0.9,                      !- Thermal Absorptance
    0.7,                      !- Solar Absorptance
    0.7;                      !- Visible Absorptance

MATERIAL,
    Insulation 0.038,         !- Name
    Rough,                    !- Roughness
    0.038,                    !- Thickness
    0.04,                     !- Conductivity
    40,                       !- Density
    1500,                     !- Specific Heat
    0.9,                      !- Thermal Absorptance
    0.7,                      !- Solar Absorptance
    0.7;                      !- Visible Absorptance

MATERIAL,
    Insulation 0.040,         !- Name
    Rough,                    !- Roughness
    0.04,                     !- Thickness
    0.04,                     !- Conductivity
    40,                       !- Density
    1500,                     !- Specific Heat
    0.9,                      !- Thermal Absorptance
    0.7,                      !- Solar Absorptance
    0.7;                      !- Visible Absorptance

MATERIAL,
    Insulation 0.043,         !- Name
    Rough,                    !- Roughness
    0.043,                    !- Thickness
    0.04,                     !- Conductivity
    40,                       !- Density
    1500,                     !- Specific Heat
    0.9,                      !- Thermal Absorptance
    0.7,                      !- Solar Absorptance
    0.7;                      !- Visible Absorptance

MATERIAL,
    Insulation 0.046,         !- Name
    Rough,                    !- Roughness
    0.046,                    !- Thickness
    0.04,                     !- Conductivity
    40,                       !- Density
    1500,                     !- Specific Heat
    0.9,                      !- Thermal Absorptance
    0.7,                      !- Solar Absorptance
    0.7;                      !- Visible Absorptance

MATERIAL,
    Insulation 0.048,         !- Name
    Rough,                    !- Roughness
    0.048,                    !- Thickness
    0.04,                     !- Conductivity
    40,                       !- Density
    1500,                     !- Specific Heat
    0.9,                      !- Thermal Absorptance
    0.7,                      !- Solar Absorptance
    0.7;                      !- Visible Absorptance

MATERIAL,
    Insulation 0.057,         !- Name
    Rough,                    !- Roughness
    0.057,                    !- Thickness
    0.04,                     !- Conductivity
    40,                       !- Density
    1500,                     !- Specific Heat
    0.9,                      !- Thermal Absorptance
    0.7,                      !- Solar Absorptance
    0.7;                      !- Visible Absorptance

MATERIAL,
    Insulation 0.069,         !- Name
    Rough,                    !- Roughness
    0.069,                    !- Thickness
    0.04,                     !- Conductivity
    40,                       !- Density
    1500,                     !- Specific Heat
    0.9,                      !- Thermal Absorptance
    0.7,                      !- Solar Absorptance
    0.7;                      !- Visible Absorptance

MATERIAL,
    Insulation 0.077,         !- Name
    Rough,                    !- Roughness
    0.077,                    !- Thickness
    0.04,                     !- Conductivity
    40,                       !- Density
    1500,                     !- Specific Heat
    0.9,                      !- Thermal Absorptance
    0.7,                      !- Solar Absorptance
    0.7;                      !- Visible Absorptance

MATERIAL,
    Insulation 0.095,         !- Name
    Rough,                    !- Roughness
    0.095,                    !- Thickness
    0.04,                     !- Conductivity
    40,                       !- Density
    1500,                     !- Specific Heat
    0.9,                      !- Thermal Absorptance
    0.7,                      !- Solar Absorptance
    0.7;                      !- Visible Absorptance

MATERIAL,
    Insulation 0.062,         !- Name
    Rough,                    !- Roughness
    0.062,                    !- Thickness
    0.04,                     !- Conductivity
    40,                       !- Density
    1500,                     !- Specific Heat
    0.9,                      !- Thermal Absorptance
    0.7,                      !- Solar Absorptance
    0.7;                      !- Visible Absorptance

MATERIAL,
    Insulation 0.11,          !- Name
    Rough,                    !- Roughness
    0.11,                     !- Thickness
    0.04,                     !- Conductivity
    40,                       !- Density
    1500,                     !- Specific Heat
    0.9,                      !- Thermal Absorptance
    0.7,                      !- Solar Absorptance
    0.7;                      !- Visible Absorptance

MATERIAL,
    Insulation 0.14,          !- Name
    Rough,                    !- Roughness
    0.14,                     !- Thickness
    0.04,                     !- Conductivity
    40,                       !- Density
    1500,                     !- Specific Heat
    0.9,                      !- Thermal Absorptance
    0.7,                      !- Solar Absorptance
    0.7;                      !- Visible Absorptance

MATERIAL,
    Insulation 0.025,         !- Name
    Rough,                    !- Roughness
    0.025,                    !- Thickness
    0.04,                     !- Conductivity
    40,                       !- Density
    1500,                     !- Specific Heat
    0.9,                      !- Thermal Absorptance
    0.7,                      !- Solar Absorptance
    0.7;                      !- Visible Absorptance

MATERIAL,
    Insulation 0.049,         !- Name
    Rough,                    !- Roughness
    0.049,                    !- Thickness
    0.04,                     !- Conductivity
    40,                       !- Density
    1500,                     !- Specific Heat
    0.9,                      !- Thermal Absorptance
    0.7,                      !- Solar Absorptance
    0.7;                      !- Visible Absorptance

MATERIAL,
    Insulation 0.081,         !- Name
    Rough,                    !- Roughness
    0.081,                    !- Thickness
    0.04,                     !- Conductivity
    40,                       !- Density
    1500,                     !- Specific Heat
    0.9,                      !- Thermal Absorptance
    0.7,                      !- Solar Absorptance
    0.7;                      !- Visible Absorptance

MATERIAL,
    Insulation 0.097,         !- Name
    Rough,                    !- Roughness
    0.097,                    !- Thickness
    0.04,                     !- Conductivity
    40,                       !- Density
    1500,                     !- Specific Heat
    0.9,                      !- Thermal Absorptance
    0.7,                      !- Solar Absorptance
    0.7;                      !- Visible Absorptance

MATERIAL,
    Insulation 0.01,          !- Name
    Rough,                    !- Roughness
    0.01,                     !- Thickness
    0.04,                     !- Conductivity
    40,                       !- Density
    1500,                     !- Specific Heat
    0.9,                      !- Thermal Absorptance
    0.7,                      !- Solar Absorptance
    0.7;                      !- Visible Absorptance

MATERIAL,
    Insulation 0.034,         !- Name
    Rough,                    !- Roughness
    0.034,                    !- Thickness
    0.04,                     !- Conductivity
    40,                       !- Density
    1500,                     !- Specific Heat
    0.9,                      !- Thermal Absorptance
    0.7,                      !- Solar Absorptance
    0.7;                      !- Visible Absorptance

MATERIAL,
    Insulation 0.033,         !- Name
    Rough,                    !- Roughness
    0.033,                    !- Thickness
    0.04,                     !- Conductivity
    40,                       !- Density
    1500,                     !- Specific Heat
    0.9,                      !- Thermal Absorptance
    0.7,                      !- Solar Absorptance
    0.7;                      !- Visible Absorptance

MATERIAL,
    Insulation 0.06,          !- Name
    Rough,                    !- Roughness
    0.06,                     !- Thickness
    0.04,                     !- Conductivity
    40,                       !- Density
    1500,                     !- Specific Heat
    0.9,                      !- Thermal Absorptance
    0.7,                      !- Solar Absorptance
    0.7;                      !- Visible Absorptance

MATERIAL,
    Insulation 0.073,         !- Name
    Rough,                    !- Roughness
    0.073,                    !- Thickness
    0.04,                     !- Conductivity
    40,                       !- Density
    1500,                     !- Specific Heat
    0.9,                      !- Thermal Absorptance
    0.7,                      !- Solar Absorptance
    0.7;                      !- Visible Absorptance

MATERIAL,
    Insulation 0.085,         !- Name
    Rough,                    !- Roughness
    0.085,                    !- Thickness
    0.04,                     !- Conductivity
    40,                       !- Density
    1500,                     !- Specific Heat
    0.9,                      !- Thermal Absorptance
    0.7,                      !- Solar Absorptance
    0.7;                      !- Visible Absorptance

MATERIAL,
    Insulation 0.072,         !- Name
    Rough,                    !- Roughness
    0.072,                    !- Thickness
    0.04,                     !- Conductivity
    40,                       !- Density
    1500,                     !- Specific Heat
    0.9,                      !- Thermal Absorptance
    0.7,                      !- Solar Absorptance
    0.7;                      !- Visible Absorptance

MATERIAL,
    Insulation 0.05,          !- Name
    Rough,                    !- Roughness
    0.05,                     !- Thickness
    0.04,                     !- Conductivity
    40,                       !- Density
    1500,                     !- Specific Heat
    0.9,                      !- Thermal Absorptance
    0.7,                      !- Solar Absorptance
    0.7;                      !- Visible Absorptance

MATERIAL,
    Insulation 0.053,         !- Name
    Rough,                    !- Roughness
    0.053,                    !- Thickness
    0.04,                     !- Conductivity
    40,                       !- Density
    1500,                     !- Specific Heat
    0.9,                      !- Thermal Absorptance
    0.7,                      !- Solar Absorptance
    0.7;                      !- Visible Absorptance

MATERIAL,
    Insulation 0.068,         !- Name
    Rough,                    !- Roughness
    0.068,                    !- Thickness
    0.04,                     !- Conductivity
    40,                       !- Density
    1500,                     !- Specific Heat
    0.9,                      !- Thermal Absorptance
    0.7,                      !- Solar Absorptance
    0.7;                      !- Visible Absorptance

MATERIAL,
    Insulation 0.042,         !- Name
    Rough,                    !- Roughness
    0.042,                    !- Thickness
    0.04,                     !- Conductivity
    40,                       !- Density
    1500,                     !- Specific Heat
    0.9,                      !- Thermal Absorptance
    0.7,                      !- Solar Absorptance
    0.7;                      !- Visible Absorptance

MATERIAL,
    Insulation 0.059,         !- Name
    Rough,                    !- Roughness
    0.059,                    !- Thickness
    0.04,                     !- Conductivity
    40,                       !- Density
    1500,                     !- Specific Heat
    0.9,                      !- Thermal Absorptance
    0.7,                      !- Solar Absorptance
    0.7;                      !- Visible Absorptance

MATERIAL,
    Insulation 0.0078,        !- Name
    Rough,                    !- Roughness
    0.008,                    !- Thickness
    0.04,                     !- Conductivity
    40,                       !- Density
    1500,                     !- Specific Heat
    0.9,                      !- Thermal Absorptance
    0.7,                      !- Solar Absorptance
    0.7;                      !- Visible Absorptance

MATERIAL,
    Insulation 0.096,         !- Name
    Rough,                    !- Roughness
    0.096,                    !- Thickness
    0.04,                     !- Conductivity
    40,                       !- Density
    1500,                     !- Specific Heat
    0.9,                      !- Thermal Absorptance
    0.7,                      !- Solar Absorptance
    0.7;                      !- Visible Absorptance

MATERIAL,
    Insulation 0.019,         !- Name
    Rough,                    !- Roughness
    0.019,                    !- Thickness
    0.04,                     !- Conductivity
    40,                       !- Density
    1500,                     !- Specific Heat
    0.9,                      !- Thermal Absorptance
    0.7,                      !- Solar Absorptance
    0.7;                      !- Visible Absorptance

MATERIAL,
    Insulation 0.0059,        !- Name
    Rough,                    !- Roughness
    0.006,                    !- Thickness
    0.04,                     !- Conductivity
    40,                       !- Density
    1500,                     !- Specific Heat
    0.9,                      !- Thermal Absorptance
    0.7,                      !- Solar Absorptance
    0.7;                      !- Visible Absorptance

MATERIAL,
    Insulation 0.04,          !- Name
    Rough,                    !- Roughness
    0.04,                     !- Thickness
    0.04,                     !- Conductivity
    40,                       !- Density
    1500,                     !- Specific Heat
    0.9,                      !- Thermal Absorptance
    0.7,                      !- Solar Absorptance
    0.7;                      !- Visible Absorptance

MATERIAL,
    Insulation 0.076,         !- Name
    Rough,                    !- Roughness
    0.076,                    !- Thickness
    0.04,                     !- Conductivity
    40,                       !- Density
    1500,                     !- Specific Heat
    0.9,                      !- Thermal Absorptance
    0.7,                      !- Solar Absorptance
    0.7;                      !- Visible Absorptance

MATERIAL,
    Insulation 0.0081,        !- Name
    Rough,                    !- Roughness
    0.008,                    !- Thickness
    0.04,                     !- Conductivity
    40,                       !- Density
    1500,                     !- Specific Heat
    0.9,                      !- Thermal Absorptance
    0.7,                      !- Solar Absorptance
    0.7;                      !- Visible Absorptance

MATERIAL,
    Insulation 0.0044,        !- Name
    Rough,                    !- Roughness
    0.004,                    !- Thickness
    0.04,                     !- Conductivity
    40,                       !- Density
    1500,                     !- Specific Heat
    0.9,                      !- Thermal Absorptance
    0.7,                      !- Solar Absorptance
    0.7;                      !- Visible Absorptance

MATERIAL,
    Insulation 0.02,          !- Name
    Rough,                    !- Roughness
    0.02,                     !- Thickness
    0.04,                     !- Conductivity
    40,                       !- Density
    1500,                     !- Specific Heat
    0.9,                      !- Thermal Absorptance
    0.7,                      !- Solar Absorptance
    0.7;                      !- Visible Absorptance

MATERIAL,
    Insulation 0.0054,        !- Name
    Rough,                    !- Roughness
    0.005,                    !- Thickness
    0.04,                     !- Conductivity
    40,                       !- Density
    1500,                     !- Specific Heat
    0.9,                      !- Thermal Absorptance
    0.7,                      !- Solar Absorptance
    0.7;                      !- Visible Absorptance

MATERIAL,
    Insulation 0.0033,        !- Name
    Rough,                    !- Roughness
    0.003,                    !- Thickness
    0.04,                     !- Conductivity
    40,                       !- Density
    1500,                     !- Specific Heat
    0.9,                      !- Thermal Absorptance
    0.7,                      !- Solar Absorptance
    0.7;                      !- Visible Absorptance

WINDOWMATERIAL:SIMPLEGLAZINGSYSTEM,
    SCZ1_Public&Industrial_1980_Win_material,    !- Name
    3.26,                     !- UFactor
    0.7;                      !- Solar Heat Gain Coefficient

WINDOWMATERIAL:SIMPLEGLAZINGSYSTEM,
    SCZ1_Public&Industrial_1995_Win_material,    !- Name
    2.5,                      !- UFactor
    0.5;                      !- Solar Heat Gain Coefficient

WINDOWMATERIAL:SIMPLEGLAZINGSYSTEM,
    SCZ1_Public&Industrial_2005_Win_material,    !- Name
    2.5,                      !- UFactor
    0.4;                      !- Solar Heat Gain Coefficient

WINDOWMATERIAL:SIMPLEGLAZINGSYSTEM,
    SCZ1_Public&Industrial_2015_Win_material,    !- Name
    2.2,                      !- UFactor
    0.4;                      !- Solar Heat Gain Coefficient

WINDOWMATERIAL:SIMPLEGLAZINGSYSTEM,
    SCZ2_Public&Industrial_1980_Win_material,    !- Name
    4.5,                      !- UFactor
    0.7;                      !- Solar Heat Gain Coefficient

WINDOWMATERIAL:SIMPLEGLAZINGSYSTEM,
    SCZ2_Public&Industrial_1995_Win_material,    !- Name
    3.5,                      !- UFactor
    0.5;                      !- Solar Heat Gain Coefficient

WINDOWMATERIAL:SIMPLEGLAZINGSYSTEM,
    SCZ2_Public&Industrial_2005_Win_material,    !- Name
    2.6,                      !- UFactor
    0.5;                      !- Solar Heat Gain Coefficient

WINDOWMATERIAL:SIMPLEGLAZINGSYSTEM,
    SCZ2_Public&Industrial_2015_Win_material,    !- Name
    2.3,                      !- UFactor
    0.5;                      !- Solar Heat Gain Coefficient

WINDOWMATERIAL:SIMPLEGLAZINGSYSTEM,
    CZ_Public&Industrial_1980_Win_material,    !- Name
    6.1,                      !- UFactor
    0.75;                     !- Solar Heat Gain Coefficient

WINDOWMATERIAL:SIMPLEGLAZINGSYSTEM,
    CZ_Public&Industrial_1995_Win_material,    !- Name
    4.5,                      !- UFactor
    0.6025;                   !- Solar Heat Gain Coefficient

WINDOWMATERIAL:SIMPLEGLAZINGSYSTEM,
    CZ_Public&Industrial_2005_Win_material,    !- Name
    3.175,                    !- UFactor
    0.485;                    !- Solar Heat Gain Coefficient

WINDOWMATERIAL:SIMPLEGLAZINGSYSTEM,
    CZ_Public&Industrial_2015_Win_material,    !- Name
    2.425,                    !- UFactor
    0.3825;                   !- Solar Heat Gain Coefficient

WINDOWMATERIAL:SIMPLEGLAZINGSYSTEM,
    HSCWZ_Public&Industrial_1980_Win_material,    !- Name
    6.1,                      !- UFactor
    0.75;                     !- Solar Heat Gain Coefficient

WINDOWMATERIAL:SIMPLEGLAZINGSYSTEM,
    HSCWZ_Public&Industrial_1995_Win_material,    !- Name
    4.5,                      !- UFactor
    0.6025;                   !- Solar Heat Gain Coefficient

WINDOWMATERIAL:SIMPLEGLAZINGSYSTEM,
    HSCWZ_Public&Industrial_2005_Win_material,    !- Name
    3.175,                    !- UFactor
    0.485;                    !- Solar Heat Gain Coefficient

WINDOWMATERIAL:SIMPLEGLAZINGSYSTEM,
    HSCWZ_Public&Industrial_2015_Win_material,    !- Name
    2.425,                    !- UFactor
    0.3825;                   !- Solar Heat Gain Coefficient

WINDOWMATERIAL:SIMPLEGLAZINGSYSTEM,
    HSWWZ_Public&Industrial_1980_Win_material,    !- Name
    6.1,                      !- UFactor
    0.75;                     !- Solar Heat Gain Coefficient

WINDOWMATERIAL:SIMPLEGLAZINGSYSTEM,
    HSWWZ_Public&Industrial_1995_Win_material,    !- Name
    4.5,                      !- UFactor
    0.6025;                   !- Solar Heat Gain Coefficient

WINDOWMATERIAL:SIMPLEGLAZINGSYSTEM,
    HSWWZ_Public&Industrial_2005_Win_material,    !- Name
    3.175,                    !- UFactor
    0.485;                    !- Solar Heat Gain Coefficient

WINDOWMATERIAL:SIMPLEGLAZINGSYSTEM,
    HSWWZ_Public&Industrial_2015_Win_material,    !- Name
    2.425,                    !- UFactor
    0.3825;                   !- Solar Heat Gain Coefficient

WINDOWMATERIAL:SIMPLEGLAZINGSYSTEM,
    TZ_Public&Industrial_1980_Win_material,    !- Name
    6.1,                      !- UFactor
    0.75;                     !- Solar Heat Gain Coefficient

WINDOWMATERIAL:SIMPLEGLAZINGSYSTEM,
    TZ_Public&Industrial_1995_Win_material,    !- Name
    4.5,                      !- UFactor
    0.6025;                   !- Solar Heat Gain Coefficient

WINDOWMATERIAL:SIMPLEGLAZINGSYSTEM,
    TZ_Public&Industrial_2005_Win_material,    !- Name
    3.175,                    !- UFactor
    0.485;                    !- Solar Heat Gain Coefficient

WINDOWMATERIAL:SIMPLEGLAZINGSYSTEM,
    TZ_Public&Industrial_2015_Win_material,    !- Name
    2.425,                    !- UFactor
    0.3825;                   !- Solar Heat Gain Coefficient

CONSTRUCTION,
    SCZ1_Public&Industrial_1980_FloorSlab,    !- Name
    Tile,                     !- Outside Layer
    Concrete,                 !- Layer 2
    Insulation 0.021,         !- Layer 3
    Concrete,                 !- Layer 4
    Tile;                     !- Layer 5

CONSTRUCTION,
    SCZ1_Public&Industrial_1995_FloorSlab,    !- Name
    Tile,                     !- Outside Layer
    Concrete,                 !- Layer 2
    Insulation 0.027,         !- Layer 3
    Concrete,                 !- Layer 4
    Tile;                     !- Layer 5

CONSTRUCTION,
    SCZ1_Public&Industrial_2005_FloorSlab,    !- Name
    Tile,                     !- Outside Layer
    Concrete,                 !- Layer 2
    Insulation 0.034,         !- Layer 3
    Concrete,                 !- Layer 4
    Tile;                     !- Layer 5

CONSTRUCTION,
    SCZ1_Public&Industrial_2015_FloorSlab,    !- Name
    Tile,                     !- Outside Layer
    Concrete,                 !- Layer 2
    Insulation 0.034,         !- Layer 3
    Concrete,                 !- Layer 4
    Tile;                     !- Layer 5

CONSTRUCTION,
    SCZ1_Public&Industrial_1980_FloorGround,    !- Name
    Tile,                     !- Outside Layer
    Concrete,                 !- Layer 2
    Gypsum,                   !- Layer 3
    Insulation 0.033;         !- Layer 4

CONSTRUCTION,
    SCZ1_Public&Industrial_1995_FloorGround,    !- Name
    Tile,                     !- Outside Layer
    Concrete,                 !- Layer 2
    Gypsum,                   !- Layer 3
    Insulation 0.06;          !- Layer 4

CONSTRUCTION,
    SCZ1_Public&Industrial_2005_FloorGround,    !- Name
    Tile,                     !- Outside Layer
    Concrete,                 !- Layer 2
    Gypsum,                   !- Layer 3
    Insulation 0.06;          !- Layer 4

CONSTRUCTION,
    SCZ1_Public&Industrial_2015_FloorGround,    !- Name
    Tile,                     !- Outside Layer
    Concrete,                 !- Layer 2
    Gypsum,                   !- Layer 3
    Insulation 0.073;         !- Layer 4

CONSTRUCTION,
    SCZ1_Public&Industrial_1980_Win,    !- Name
    SCZ1_Public&Industrial_1980_Win_material;    !- Outside Layer

CONSTRUCTION,
    SCZ1_Public&Industrial_1995_Win,    !- Name
    SCZ1_Public&Industrial_1995_Win_material;    !- Outside Layer

CONSTRUCTION,
    SCZ1_Public&Industrial_2005_Win,    !- Name
    SCZ1_Public&Industrial_2005_Win_material;    !- Outside Layer

CONSTRUCTION,
    SCZ1_Public&Industrial_2015_Win,    !- Name
    SCZ1_Public&Industrial_2015_Win_material;    !- Outside Layer

CONSTRUCTION,
    SCZ2_Public&Industrial_1980_FloorSlab,    !- Name
    Tile,                     !- Outside Layer
    Concrete,                 !- Layer 2
    Insulation 0.021,         !- Layer 3
    Concrete,                 !- Layer 4
    Tile;                     !- Layer 5

CONSTRUCTION,
    SCZ2_Public&Industrial_1995_FloorSlab,    !- Name
    Tile,                     !- Outside Layer
    Concrete,                 !- Layer 2
    Insulation 0.027,         !- Layer 3
    Concrete,                 !- Layer 4
    Tile;                     !- Layer 5

CONSTRUCTION,
    SCZ2_Public&Industrial_2005_FloorSlab,    !- Name
    Tile,                     !- Outside Layer
    Concrete,                 !- Layer 2
    Insulation 0.034,         !- Layer 3
    Concrete,                 !- Layer 4
    Tile;                     !- Layer 5

CONSTRUCTION,
    SCZ2_Public&Industrial_2015_FloorSlab,    !- Name
    Tile,                     !- Outside Layer
    Concrete,                 !- Layer 2
    Insulation 0.034,         !- Layer 3
    Concrete,                 !- Layer 4
    Tile;                     !- Layer 5

CONSTRUCTION,
    SCZ2_Public&Industrial_1980_FloorGround,    !- Name
    Tile,                     !- Outside Layer
    Concrete,                 !- Layer 2
    Gypsum,                   !- Layer 3
    Insulation 0.033;         !- Layer 4

CONSTRUCTION,
    SCZ2_Public&Industrial_1995_FloorGround,    !- Name
    Tile,                     !- Outside Layer
    Concrete,                 !- Layer 2
    Gypsum,                   !- Layer 3
    Insulation 0.043;         !- Layer 4

CONSTRUCTION,
    SCZ2_Public&Industrial_2005_FloorGround,    !- Name
    Tile,                     !- Outside Layer
    Concrete,                 !- Layer 2
    Gypsum,                   !- Layer 3
    Insulation 0.043;         !- Layer 4

CONSTRUCTION,
    SCZ2_Public&Industrial_2015_FloorGround,    !- Name
    Tile,                     !- Outside Layer
    Concrete,                 !- Layer 2
    Gypsum,                   !- Layer 3
    Insulation 0.05;          !- Layer 4

CONSTRUCTION,
    SCZ2_Public&Industrial_1980_Win,    !- Name
    SCZ2_Public&Industrial_1980_Win_material;    !- Outside Layer

CONSTRUCTION,
    SCZ2_Public&Industrial_1995_Win,    !- Name
    SCZ2_Public&Industrial_1995_Win_material;    !- Outside Layer

CONSTRUCTION,
    SCZ2_Public&Industrial_2005_Win,    !- Name
    SCZ2_Public&Industrial_2005_Win_material;    !- Outside Layer

CONSTRUCTION,
    SCZ2_Public&Industrial_2015_Win,    !- Name
    SCZ2_Public&Industrial_2015_Win_material;    !- Outside Layer

CONSTRUCTION,
    CZ_Public&Industrial_1980_FloorSlab,    !- Name
    Tile,                     !- Outside Layer
    Concrete,                 !- Layer 2
    Insulation 0.018,         !- Layer 3
    Concrete,                 !- Layer 4
    Tile;                     !- Layer 5

CONSTRUCTION,
    CZ_Public&Industrial_1995_FloorSlab,    !- Name
    Tile,                     !- Outside Layer
    Concrete,                 !- Layer 2
    Insulation 0.027,         !- Layer 3
    Concrete,                 !- Layer 4
    Tile;                     !- Layer 5

CONSTRUCTION,
    CZ_Public&Industrial_2005_FloorSlab,    !- Name
    Tile,                     !- Outside Layer
    Concrete,                 !- Layer 2
    Insulation 0.034,         !- Layer 3
    Concrete,                 !- Layer 4
    Tile;                     !- Layer 5

CONSTRUCTION,
    CZ_Public&Industrial_2015_FloorSlab,    !- Name
    Tile,                     !- Outside Layer
    Concrete,                 !- Layer 2
    Insulation 0.034,         !- Layer 3
    Concrete,                 !- Layer 4
    Tile;                     !- Layer 5

CONSTRUCTION,
    CZ_Public&Industrial_1980_FloorGround,    !- Name
    Tile,                     !- Outside Layer
    Concrete,                 !- Layer 2
    Gypsum,                   !- Layer 3
    Insulation 0.027;         !- Layer 4

CONSTRUCTION,
    CZ_Public&Industrial_1995_FloorGround,    !- Name
    Tile,                     !- Outside Layer
    Concrete,                 !- Layer 2
    Gypsum,                   !- Layer 3
    Insulation 0.05;          !- Layer 4

CONSTRUCTION,
    CZ_Public&Industrial_2005_FloorGround,    !- Name
    Tile,                     !- Outside Layer
    Concrete,                 !- Layer 2
    Gypsum,                   !- Layer 3
    Insulation 0.043;         !- Layer 4

CONSTRUCTION,
    CZ_Public&Industrial_2015_FloorGround,    !- Name
    Tile,                     !- Outside Layer
    Concrete,                 !- Layer 2
    Gypsum,                   !- Layer 3
    Insulation 0.05;          !- Layer 4

CONSTRUCTION,
    CZ_Public&Industrial_1980_Win,    !- Name
    CZ_Public&Industrial_1980_Win_material;    !- Outside Layer

CONSTRUCTION,
    CZ_Public&Industrial_1995_Win,    !- Name
    CZ_Public&Industrial_1995_Win_material;    !- Outside Layer

CONSTRUCTION,
    CZ_Public&Industrial_2005_Win,    !- Name
    CZ_Public&Industrial_2005_Win_material;    !- Outside Layer

CONSTRUCTION,
    CZ_Public&Industrial_2015_Win,    !- Name
    CZ_Public&Industrial_2015_Win_material;    !- Outside Layer

CONSTRUCTION,
    HSCWZ_Public&Industrial_1980_FloorSlab,    !- Name
    Tile,                     !- Outside Layer
    Concrete,                 !- Layer 2
    Insulation 0.014,         !- Layer 3
    Concrete,                 !- Layer 4
    Tile;                     !- Layer 5

CONSTRUCTION,
    HSCWZ_Public&Industrial_1995_FloorSlab,    !- Name
    Tile,                     !- Outside Layer
    Concrete,                 !- Layer 2
    Insulation 0.021,         !- Layer 3
    Concrete,                 !- Layer 4
    Tile;                     !- Layer 5

CONSTRUCTION,
    HSCWZ_Public&Industrial_2005_FloorSlab,    !- Name
    Tile,                     !- Outside Layer
    Concrete,                 !- Layer 2
    Insulation 0.021,         !- Layer 3
    Concrete,                 !- Layer 4
    Tile;                     !- Layer 5

CONSTRUCTION,
    HSCWZ_Public&Industrial_2015_FloorSlab,    !- Name
    Tile,                     !- Outside Layer
    Concrete,                 !- Layer 2
    Insulation 0.021,         !- Layer 3
    Concrete,                 !- Layer 4
    Tile;                     !- Layer 5

CONSTRUCTION,
    HSCWZ_Public&Industrial_1980_FloorGround,    !- Name
    Tile,                     !- Outside Layer
    Concrete,                 !- Layer 2
    Gypsum,                   !- Layer 3
    Insulation 0.024;         !- Layer 4

CONSTRUCTION,
    HSCWZ_Public&Industrial_1995_FloorGround,    !- Name
    Tile,                     !- Outside Layer
    Concrete,                 !- Layer 2
    Gypsum,                   !- Layer 3
    Insulation 0.043;         !- Layer 4

CONSTRUCTION,
    HSCWZ_Public&Industrial_2005_FloorGround,    !- Name
    Tile,                     !- Outside Layer
    Concrete,                 !- Layer 2
    Gypsum,                   !- Layer 3
    Insulation 0.043;         !- Layer 4

CONSTRUCTION,
    HSCWZ_Public&Industrial_2015_FloorGround,    !- Name
    Tile,                     !- Outside Layer
    Concrete,                 !- Layer 2
    Gypsum,                   !- Layer 3
    Insulation 0.043;         !- Layer 4

CONSTRUCTION,
    HSCWZ_Public&Industrial_1980_Win,    !- Name
    HSCWZ_Public&Industrial_1980_Win_material;    !- Outside Layer

CONSTRUCTION,
    HSCWZ_Public&Industrial_1995_Win,    !- Name
    HSCWZ_Public&Industrial_1995_Win_material;    !- Outside Layer

CONSTRUCTION,
    HSCWZ_Public&Industrial_2005_Win,    !- Name
    HSCWZ_Public&Industrial_2005_Win_material;    !- Outside Layer

CONSTRUCTION,
    HSCWZ_Public&Industrial_2015_Win,    !- Name
    HSCWZ_Public&Industrial_2015_Win_material;    !- Outside Layer

CONSTRUCTION,
    HSWWZ_Public&Industrial_1980_FloorSlab,    !- Name
    Tile,                     !- Outside Layer
    Concrete,                 !- Layer 2
    Insulation 0.01,          !- Layer 3
    Concrete,                 !- Layer 4
    Tile;                     !- Layer 5

CONSTRUCTION,
    HSWWZ_Public&Industrial_1995_FloorSlab,    !- Name
    Tile,                     !- Outside Layer
    Concrete,                 !- Layer 2
    Insulation 0.014,         !- Layer 3
    Concrete,                 !- Layer 4
    Tile;                     !- Layer 5

CONSTRUCTION,
    HSWWZ_Public&Industrial_2005_FloorSlab,    !- Name
    Tile,                     !- Outside Layer
    Concrete,                 !- Layer 2
    Insulation 0.014,         !- Layer 3
    Concrete,                 !- Layer 4
    Tile;                     !- Layer 5

CONSTRUCTION,
    HSWWZ_Public&Industrial_2015_FloorSlab,    !- Name
    Tile,                     !- Outside Layer
    Concrete,                 !- Layer 2
    Insulation 0.014,         !- Layer 3
    Concrete,                 !- Layer 4
    Tile;                     !- Layer 5

CONSTRUCTION,
    HSWWZ_Public&Industrial_1980_FloorGround,    !- Name
    Tile,                     !- Outside Layer
    Concrete,                 !- Layer 2
    Gypsum,                   !- Layer 3
    Insulation 0.02;          !- Layer 4

CONSTRUCTION,
    HSWWZ_Public&Industrial_1995_FloorGround,    !- Name
    Tile,                     !- Outside Layer
    Concrete,                 !- Layer 2
    Gypsum,                   !- Layer 3
    Insulation 0.033;         !- Layer 4

CONSTRUCTION,
    HSWWZ_Public&Industrial_2005_FloorGround,    !- Name
    Tile,                     !- Outside Layer
    Concrete,                 !- Layer 2
    Gypsum,                   !- Layer 3
    Insulation 0.033;         !- Layer 4

CONSTRUCTION,
    HSWWZ_Public&Industrial_2015_FloorGround,    !- Name
    Tile,                     !- Outside Layer
    Concrete,                 !- Layer 2
    Gypsum,                   !- Layer 3
    Insulation 0.033;         !- Layer 4

CONSTRUCTION,
    HSWWZ_Public&Industrial_1980_Win,    !- Name
    HSWWZ_Public&Industrial_1980_Win_material;    !- Outside Layer

CONSTRUCTION,
    HSWWZ_Public&Industrial_1995_Win,    !- Name
    HSWWZ_Public&Industrial_1995_Win_material;    !- Outside Layer

CONSTRUCTION,
    HSWWZ_Public&Industrial_2005_Win,    !- Name
    HSWWZ_Public&Industrial_2005_Win_material;    !- Outside Layer

CONSTRUCTION,
    HSWWZ_Public&Industrial_2015_Win,    !- Name
    HSWWZ_Public&Industrial_2015_Win_material;    !- Outside Layer

CONSTRUCTION,
    TZ_Public&Industrial_1980_FloorSlab,    !- Name
    Tile,                     !- Outside Layer
    Concrete,                 !- Layer 2
    Insulation 0.01,          !- Layer 3
    Concrete,                 !- Layer 4
    Tile;                     !- Layer 5

CONSTRUCTION,
    TZ_Public&Industrial_1995_FloorSlab,    !- Name
    Tile,                     !- Outside Layer
    Concrete,                 !- Layer 2
    Insulation 0.01,          !- Layer 3
    Concrete,                 !- Layer 4
    Tile;                     !- Layer 5

CONSTRUCTION,
    TZ_Public&Industrial_2005_FloorSlab,    !- Name
    Tile,                     !- Outside Layer
    Concrete,                 !- Layer 2
    Insulation 0.014,         !- Layer 3
    Concrete,                 !- Layer 4
    Tile;                     !- Layer 5

CONSTRUCTION,
    TZ_Public&Industrial_2015_FloorSlab,    !- Name
    Tile,                     !- Outside Layer
    Concrete,                 !- Layer 2
    Insulation 0.014,         !- Layer 3
    Concrete,                 !- Layer 4
    Tile;                     !- Layer 5

CONSTRUCTION,
    TZ_Public&Industrial_1980_FloorGround,    !- Name
    Tile,                     !- Outside Layer
    Concrete,                 !- Layer 2
    Gypsum,                   !- Layer 3
    Insulation 0.017;         !- Layer 4

CONSTRUCTION,
    TZ_Public&Industrial_1995_FloorGround,    !- Name
    Tile,                     !- Outside Layer
    Concrete,                 !- Layer 2
    Gypsum,                   !- Layer 3
    Insulation 0.027;         !- Layer 4

CONSTRUCTION,
    TZ_Public&Industrial_2005_FloorGround,    !- Name
    Tile,                     !- Outside Layer
    Concrete,                 !- Layer 2
    Gypsum,                   !- Layer 3
    Insulation 0.02;          !- Layer 4

CONSTRUCTION,
    TZ_Public&Industrial_2015_FloorGround,    !- Name
    Tile,                     !- Outside Layer
    Concrete,                 !- Layer 2
    Gypsum,                   !- Layer 3
    Insulation 0.02;          !- Layer 4

CONSTRUCTION,
    TZ_Public&Industrial_1980_Win,    !- Name
    TZ_Public&Industrial_1980_Win_material;    !- Outside Layer

CONSTRUCTION,
    TZ_Public&Industrial_1995_Win,    !- Name
    TZ_Public&Industrial_1995_Win_material;    !- Outside Layer

CONSTRUCTION,
    TZ_Public&Industrial_2005_Win,    !- Name
    TZ_Public&Industrial_2005_Win_material;    !- Outside Layer

CONSTRUCTION,
    TZ_Public&Industrial_2015_Win,    !- Name
    TZ_Public&Industrial_2015_Win_material;    !- Outside Layer

CONSTRUCTION,
    SCZ1_Public&Industrial_1980_Roof,    !- Name
    AsphaltFelt,              !- Outside Layer
    Concrete,                 !- Layer 2
    Insulation 0.048;         !- Layer 3

CONSTRUCTION,
    SCZ1_Public&Industrial_1995_Roof,    !- Name
    AsphaltFelt,              !- Outside Layer
    Concrete,                 !- Layer 2
    Insulation 0.048;         !- Layer 3

CONSTRUCTION,
    SCZ1_Public&Industrial_2005_Roof,    !- Name
    AsphaltFelt,              !- Outside Layer
    Concrete,                 !- Layer 2
    Insulation 0.048;         !- Layer 3

CONSTRUCTION,
    SCZ1_Public&Industrial_2015_Roof,    !- Name
    AsphaltFelt,              !- Outside Layer
    Concrete,                 !- Layer 2
    Insulation 0.048;         !- Layer 3

CONSTRUCTION,
    SCZ1_Public&Industrial_1980_ExtWall,    !- Name
    Brick,                    !- Outside Layer
    Concrete,                 !- Layer 2
    Insulation 0.022;         !- Layer 3

CONSTRUCTION,
    SCZ1_Public&Industrial_1995_ExtWall,    !- Name
    Brick,                    !- Outside Layer
    Concrete,                 !- Layer 2
    Insulation 0.022;         !- Layer 3

CONSTRUCTION,
    SCZ1_Public&Industrial_2005_ExtWall,    !- Name
    Brick,                    !- Outside Layer
    Concrete,                 !- Layer 2
    Insulation 0.022;         !- Layer 3

CONSTRUCTION,
    SCZ1_Public&Industrial_2015_ExtWall,    !- Name
    Brick,                    !- Outside Layer
    Concrete,                 !- Layer 2
    Insulation 0.022;         !- Layer 3

CONSTRUCTION,
    SCZ1_Public&Industrial_1980_IntWall,    !- Name
    Brick,                    !- Outside Layer
    Brick;                    !- Layer 2

CONSTRUCTION,
    SCZ1_Public&Industrial_1995_IntWall,    !- Name
    Brick,                    !- Outside Layer
    Brick;                    !- Layer 2

CONSTRUCTION,
    SCZ1_Public&Industrial_2005_IntWall,    !- Name
    Brick,                    !- Outside Layer
    Brick;                    !- Layer 2

CONSTRUCTION,
    SCZ1_Public&Industrial_2015_IntWall,    !- Name
    Brick,                    !- Outside Layer
    Brick;                    !- Layer 2

CONSTRUCTION,
    SCZ2_Public&Industrial_1980_Roof,    !- Name
    AsphaltFelt,              !- Outside Layer
    Concrete,                 !- Layer 2
    Insulation 0.036;         !- Layer 3

CONSTRUCTION,
    SCZ2_Public&Industrial_1995_Roof,    !- Name
    AsphaltFelt,              !- Outside Layer
    Concrete,                 !- Layer 2
    Insulation 0.036;         !- Layer 3

CONSTRUCTION,
    SCZ2_Public&Industrial_2005_Roof,    !- Name
    AsphaltFelt,              !- Outside Layer
    Concrete,                 !- Layer 2
    Insulation 0.036;         !- Layer 3

CONSTRUCTION,
    SCZ2_Public&Industrial_2015_Roof,    !- Name
    AsphaltFelt,              !- Outside Layer
    Concrete,                 !- Layer 2
    Insulation 0.036;         !- Layer 3

CONSTRUCTION,
    SCZ2_Public&Industrial_1980_ExtWall,    !- Name
    Brick,                    !- Outside Layer
    Concrete,                 !- Layer 2
    Insulation 0.021;         !- Layer 3

CONSTRUCTION,
    SCZ2_Public&Industrial_1995_ExtWall,    !- Name
    Brick,                    !- Outside Layer
    Concrete,                 !- Layer 2
    Insulation 0.021;         !- Layer 3

CONSTRUCTION,
    SCZ2_Public&Industrial_2005_ExtWall,    !- Name
    Brick,                    !- Outside Layer
    Concrete,                 !- Layer 2
    Insulation 0.021;         !- Layer 3

CONSTRUCTION,
    SCZ2_Public&Industrial_2015_ExtWall,    !- Name
    Brick,                    !- Outside Layer
    Concrete,                 !- Layer 2
    Insulation 0.021;         !- Layer 3

CONSTRUCTION,
    SCZ2_Public&Industrial_1980_IntWall,    !- Name
    Brick,                    !- Outside Layer
    Brick;                    !- Layer 2

CONSTRUCTION,
    SCZ2_Public&Industrial_1995_IntWall,    !- Name
    Brick,                    !- Outside Layer
    Brick;                    !- Layer 2

CONSTRUCTION,
    SCZ2_Public&Industrial_2005_IntWall,    !- Name
    Brick,                    !- Outside Layer
    Brick;                    !- Layer 2

CONSTRUCTION,
    SCZ2_Public&Industrial_2015_IntWall,    !- Name
    Brick,                    !- Outside Layer
    Brick;                    !- Layer 2

CONSTRUCTION,
    CZ_Public&Industrial_1980_Roof,    !- Name
    AsphaltFelt,              !- Outside Layer
    Concrete,                 !- Layer 2
    Insulation 0.027;         !- Layer 3

CONSTRUCTION,
    CZ_Public&Industrial_1995_Roof,    !- Name
    AsphaltFelt,              !- Outside Layer
    Concrete,                 !- Layer 2
    Insulation 0.027;         !- Layer 3

CONSTRUCTION,
    CZ_Public&Industrial_2005_Roof,    !- Name
    AsphaltFelt,              !- Outside Layer
    Concrete,                 !- Layer 2
    Insulation 0.027;         !- Layer 3

CONSTRUCTION,
    CZ_Public&Industrial_2015_Roof,    !- Name
    AsphaltFelt,              !- Outside Layer
    Concrete,                 !- Layer 2
    Insulation 0.027;         !- Layer 3

CONSTRUCTION,
    CZ_Public&Industrial_1980_ExtWall,    !- Name
    Brick,                    !- Outside Layer
    Concrete,                 !- Layer 2
    Insulation 0.014;         !- Layer 3

CONSTRUCTION,
    CZ_Public&Industrial_1995_ExtWall,    !- Name
    Brick,                    !- Outside Layer
    Concrete,                 !- Layer 2
    Insulation 0.014;         !- Layer 3

CONSTRUCTION,
    CZ_Public&Industrial_2005_ExtWall,    !- Name
    Brick,                    !- Outside Layer
    Concrete,                 !- Layer 2
    Insulation 0.014;         !- Layer 3

CONSTRUCTION,
    CZ_Public&Industrial_2015_ExtWall,    !- Name
    Brick,                    !- Outside Layer
    Concrete,                 !- Layer 2
    Insulation 0.014;         !- Layer 3

CONSTRUCTION,
    CZ_Public&Industrial_1980_IntWall,    !- Name
    Brick,                    !- Outside Layer
    Brick;                    !- Layer 2

CONSTRUCTION,
    CZ_Public&Industrial_1995_IntWall,    !- Name
    Brick,                    !- Outside Layer
    Brick;                    !- Layer 2

CONSTRUCTION,
    CZ_Public&Industrial_2005_IntWall,    !- Name
    Brick,                    !- Outside Layer
    Brick;                    !- Layer 2

CONSTRUCTION,
    CZ_Public&Industrial_2015_IntWall,    !- Name
    Brick,                    !- Outside Layer
    Brick;                    !- Layer 2

CONSTRUCTION,
    HSCWZ_Public&Industrial_1980_Roof,    !- Name
    AsphaltFelt,              !- Outside Layer
    Concrete,                 !- Layer 2
    Insulation 0.022;         !- Layer 3

CONSTRUCTION,
    HSCWZ_Public&Industrial_1995_Roof,    !- Name
    AsphaltFelt,              !- Outside Layer
    Concrete,                 !- Layer 2
    Insulation 0.022;         !- Layer 3

CONSTRUCTION,
    HSCWZ_Public&Industrial_2005_Roof,    !- Name
    AsphaltFelt,              !- Outside Layer
    Concrete,                 !- Layer 2
    Insulation 0.022;         !- Layer 3

CONSTRUCTION,
    HSCWZ_Public&Industrial_2015_Roof,    !- Name
    AsphaltFelt,              !- Outside Layer
    Concrete,                 !- Layer 2
    Insulation 0.022;         !- Layer 3

CONSTRUCTION,
    HSCWZ_Public&Industrial_1980_ExtWall,    !- Name
    Brick,                    !- Outside Layer
    Concrete,                 !- Layer 2
    Insulation 0.011;         !- Layer 3

CONSTRUCTION,
    HSCWZ_Public&Industrial_1995_ExtWall,    !- Name
    Brick,                    !- Outside Layer
    Concrete,                 !- Layer 2
    Insulation 0.011;         !- Layer 3

CONSTRUCTION,
    HSCWZ_Public&Industrial_2005_ExtWall,    !- Name
    Brick,                    !- Outside Layer
    Concrete,                 !- Layer 2
    Insulation 0.011;         !- Layer 3

CONSTRUCTION,
    HSCWZ_Public&Industrial_2015_ExtWall,    !- Name
    Brick,                    !- Outside Layer
    Concrete,                 !- Layer 2
    Insulation 0.011;         !- Layer 3

CONSTRUCTION,
    HSCWZ_Public&Industrial_1980_IntWall,    !- Name
    Brick,                    !- Outside Layer
    Brick;                    !- Layer 2

CONSTRUCTION,
    HSCWZ_Public&Industrial_1995_IntWall,    !- Name
    Brick,                    !- Outside Layer
    Brick;                    !- Layer 2

CONSTRUCTION,
    HSCWZ_Public&Industrial_2005_IntWall,    !- Name
    Brick,                    !- Outside Layer
    Brick;                    !- Layer 2

CONSTRUCTION,
    HSCWZ_Public&Industrial_2015_IntWall,    !- Name
    Brick,                    !- Outside Layer
    Brick;                    !- Layer 2

CONSTRUCTION,
    HSWWZ_Public&Industrial_1980_Roof,    !- Name
    AsphaltFelt,              !- Outside Layer
    Concrete,                 !- Layer 2
    Insulation 0.016;         !- Layer 3

CONSTRUCTION,
    HSWWZ_Public&Industrial_1995_Roof,    !- Name
    AsphaltFelt,              !- Outside Layer
    Concrete,                 !- Layer 2
    Insulation 0.016;         !- Layer 3

CONSTRUCTION,
    HSWWZ_Public&Industrial_2005_Roof,    !- Name
    AsphaltFelt,              !- Outside Layer
    Concrete,                 !- Layer 2
    Insulation 0.016;         !- Layer 3

CONSTRUCTION,
    HSWWZ_Public&Industrial_2015_Roof,    !- Name
    AsphaltFelt,              !- Outside Layer
    Concrete,                 !- Layer 2
    Insulation 0.016;         !- Layer 3

CONSTRUCTION,
    HSWWZ_Public&Industrial_1980_ExtWall,    !- Name
    Brick,                    !- Outside Layer
    Concrete,                 !- Layer 2
    Insulation 0.007;         !- Layer 3

CONSTRUCTION,
    HSWWZ_Public&Industrial_1995_ExtWall,    !- Name
    Brick,                    !- Outside Layer
    Concrete,                 !- Layer 2
    Insulation 0.007;         !- Layer 3

CONSTRUCTION,
    HSWWZ_Public&Industrial_2005_ExtWall,    !- Name
    Brick,                    !- Outside Layer
    Concrete,                 !- Layer 2
    Insulation 0.007;         !- Layer 3

CONSTRUCTION,
    HSWWZ_Public&Industrial_2015_ExtWall,    !- Name
    Brick,                    !- Outside Layer
    Concrete,                 !- Layer 2
    Insulation 0.007;         !- Layer 3

CONSTRUCTION,
    HSWWZ_Public&Industrial_1980_IntWall,    !- Name
    Brick,                    !- Outside Layer
    Brick;                    !- Layer 2

CONSTRUCTION,
    HSWWZ_Public&Industrial_1995_IntWall,    !- Name
    Brick,                    !- Outside Layer
    Brick;                    !- Layer 2

CONSTRUCTION,
    HSWWZ_Public&Industrial_2005_IntWall,    !- Name
    Brick,                    !- Outside Layer
    Brick;                    !- Layer 2

CONSTRUCTION,
    HSWWZ_Public&Industrial_2015_IntWall,    !- Name
    Brick,                    !- Outside Layer
    Brick;                    !- Layer 2

CONSTRUCTION,
    TZ_Public&Industrial_1980_Roof,    !- Name
    AsphaltFelt,              !- Outside Layer
    Concrete,                 !- Layer 2
    Insulation 0.012;         !- Layer 3

CONSTRUCTION,
    TZ_Public&Industrial_1995_Roof,    !- Name
    AsphaltFelt,              !- Outside Layer
    Concrete,                 !- Layer 2
    Insulation 0.012;         !- Layer 3

CONSTRUCTION,
    TZ_Public&Industrial_2005_Roof,    !- Name
    AsphaltFelt,              !- Outside Layer
    Concrete,                 !- Layer 2
    Insulation 0.012;         !- Layer 3

CONSTRUCTION,
    TZ_Public&Industrial_2015_Roof,    !- Name
    AsphaltFelt,              !- Outside Layer
    Concrete,                 !- Layer 2
    Insulation 0.012;         !- Layer 3

CONSTRUCTION,
    TZ_Public&Industrial_1980_ExtWall,    !- Name
    Brick,                    !- Outside Layer
    Concrete,                 !- Layer 2
    Insulation 0.004;         !- Layer 3

CONSTRUCTION,
    TZ_Public&Industrial_1995_ExtWall,    !- Name
    Brick,                    !- Outside Layer
    Concrete,                 !- Layer 2
    Insulation 0.004;         !- Layer 3

CONSTRUCTION,
    TZ_Public&Industrial_2005_ExtWall,    !- Name
    Brick,                    !- Outside Layer
    Concrete,                 !- Layer 2
    Insulation 0.004;         !- Layer 3

CONSTRUCTION,
    TZ_Public&Industrial_2015_ExtWall,    !- Name
    Brick,                    !- Outside Layer
    Concrete,                 !- Layer 2
    Insulation 0.004;         !- Layer 3

CONSTRUCTION,
    TZ_Public&Industrial_1980_IntWall,    !- Name
    Brick,                    !- Outside Layer
    Brick;                    !- Layer 2

CONSTRUCTION,
    TZ_Public&Industrial_1995_IntWall,    !- Name
    Brick,                    !- Outside Layer
    Brick;                    !- Layer 2

CONSTRUCTION,
    TZ_Public&Industrial_2005_IntWall,    !- Name
    Brick,                    !- Outside Layer
    Brick;                    !- Layer 2

CONSTRUCTION,
    TZ_Public&Industrial_2015_IntWall,    !- Name
    Brick,                    !- Outside Layer
    Brick;                    !- Layer 2

GLOBALGEOMETRYRULES,
    UpperRightCorner,         !- Starting Vertex Position
    Counterclockwise,         !- Vertex Entry Direction
    Relative,                 !- Coordinate System
    Relative,                 !- Daylighting Reference Point Coordinate System
    Relative;                 !- Rectangular Surface Coordinate System

ZONE,
    Block Poly_10_Transport Storey 0,    !- Name
    0,                        !- Direction of Relative North
    0,                        !- X Origin
    0,                        !- Y Origin
    0,                        !- Z Origin
    1,                        !- Type
    1,                        !- Multiplier
    autocalculate,            !- Ceiling Height
    autocalculate,            !- Volume
    autocalculate,            !- Floor Area
    ,                         !- Zone Inside Convection Algorithm
    ,                         !- Zone Outside Convection Algorithm
    Yes;                      !- Part of Total Floor Area

ZONE,
    Block Poly_10_Transport Storey 1,    !- Name
    0,                        !- Direction of Relative North
    0,                        !- X Origin
    0,                        !- Y Origin
    0,                        !- Z Origin
    1,                        !- Type
    1,                        !- Multiplier
    autocalculate,            !- Ceiling Height
    autocalculate,            !- Volume
    autocalculate,            !- Floor Area
    ,                         !- Zone Inside Convection Algorithm
    ,                         !- Zone Outside Convection Algorithm
    Yes;                      !- Part of Total Floor Area

ZONE,
    Block Poly_10_Transport Storey 2,    !- Name
    0,                        !- Direction of Relative North
    0,                        !- X Origin
    0,                        !- Y Origin
    0,                        !- Z Origin
    1,                        !- Type
    1,                        !- Multiplier
    autocalculate,            !- Ceiling Height
    autocalculate,            !- Volume
    autocalculate,            !- Floor Area
    ,                         !- Zone Inside Convection Algorithm
    ,                         !- Zone Outside Convection Algorithm
    Yes;                      !- Part of Total Floor Area

ZONE,
    Block Poly_10_Transport Storey 3,    !- Name
    0,                        !- Direction of Relative North
    0,                        !- X Origin
    0,                        !- Y Origin
    0,                        !- Z Origin
    1,                        !- Type
    1,                        !- Multiplier
    autocalculate,            !- Ceiling Height
    autocalculate,            !- Volume
    autocalculate,            !- Floor Area
    ,                         !- Zone Inside Convection Algorithm
    ,                         !- Zone Outside Convection Algorithm
    Yes;                      !- Part of Total Floor Area

ZONE,
    Block Poly_10_Transport Storey 4,    !- Name
    0,                        !- Direction of Relative North
    0,                        !- X Origin
    0,                        !- Y Origin
    0,                        !- Z Origin
    1,                        !- Type
    1,                        !- Multiplier
    autocalculate,            !- Ceiling Height
    autocalculate,            !- Volume
    autocalculate,            !- Floor Area
    ,                         !- Zone Inside Convection Algorithm
    ,                         !- Zone Outside Convection Algorithm
    Yes;                      !- Part of Total Floor Area

BUILDINGSURFACE:DETAILED,
    Block Poly_10_Transport Storey 0 Wall 0001,    !- Name
    Wall,                     !- Surface Type
    HSCWZ_Public&Industrial_2015_ExtWall,    !- Construction Name
    Block Poly_10_Transport Storey 0,    !- Zone Name
    ,                         !- Space Name
    Outdoors,                 !- Outside Boundary Condition
    ,                         !- Outside Boundary Condition Object
    SunExposed,               !- Sun Exposure
    WindExposed,              !- Wind Exposure
    autocalculate,            !- View Factor to Ground
    autocalculate,            !- Number of Vertices
    66.81060939311283,        !- Vertex 1 Xcoordinate
    128.8472163812257,        !- Vertex 1 Ycoordinate
    4,                        !- Vertex 1 Zcoordinate
    66.81060939311283,        !- Vertex 2 Xcoordinate
    128.8472163812257,        !- Vertex 2 Ycoordinate
    0,                        !- Vertex 2 Zcoordinate
    63.54513706220314,        !- Vertex 3 Xcoordinate
    154.06094518117607,       !- Vertex 3 Ycoordinate
    0,                        !- Vertex 3 Zcoordinate
    63.54513706220314,        !- Vertex 4 Xcoordinate
    154.06094518117607,       !- Vertex 4 Ycoordinate
    4;                        !- Vertex 4 Zcoordinate

BUILDINGSURFACE:DETAILED,
    Block Poly_10_Transport Storey 0 Wall 0002,    !- Name
    Wall,                     !- Surface Type
    HSCWZ_Public&Industrial_2015_ExtWall,    !- Construction Name
    Block Poly_10_Transport Storey 0,    !- Zone Name
    ,                         !- Space Name
    Outdoors,                 !- Outside Boundary Condition
    ,                         !- Outside Boundary Condition Object
    SunExposed,               !- Sun Exposure
    WindExposed,              !- Wind Exposure
    autocalculate,            !- View Factor to Ground
    autocalculate,            !- Number of Vertices
    63.54513706220314,        !- Vertex 1 Xcoordinate
    154.06094518117607,       !- Vertex 1 Ycoordinate
    4,                        !- Vertex 1 Zcoordinate
    63.54513706220314,        !- Vertex 2 Xcoordinate
    154.06094518117607,       !- Vertex 2 Ycoordinate
    0,                        !- Vertex 2 Zcoordinate
    60.448675296793226,       !- Vertex 3 Xcoordinate
    164.30488186795264,       !- Vertex 3 Ycoordinate
    0,                        !- Vertex 3 Zcoordinate
    60.448675296793226,       !- Vertex 4 Xcoordinate
    164.30488186795264,       !- Vertex 4 Ycoordinate
    4;                        !- Vertex 4 Zcoordinate

BUILDINGSURFACE:DETAILED,
    Block Poly_10_Transport Storey 0 Wall 0003,    !- Name
    Wall,                     !- Surface Type
    HSCWZ_Public&Industrial_2015_ExtWall,    !- Construction Name
    Block Poly_10_Transport Storey 0,    !- Zone Name
    ,                         !- Space Name
    Outdoors,                 !- Outside Boundary Condition
    ,                         !- Outside Boundary Condition Object
    SunExposed,               !- Sun Exposure
    WindExposed,              !- Wind Exposure
    autocalculate,            !- View Factor to Ground
    autocalculate,            !- Number of Vertices
    60.448675296793226,       !- Vertex 1 Xcoordinate
    164.30488186795264,       !- Vertex 1 Ycoordinate
    4,                        !- Vertex 1 Zcoordinate
    60.448675296793226,       !- Vertex 2 Xcoordinate
    164.30488186795264,       !- Vertex 2 Ycoordinate
    0,                        !- Vertex 2 Zcoordinate
    55.934884526301175,       !- Vertex 3 Xcoordinate
    175.45588695583865,       !- Vertex 3 Ycoordinate
    0,                        !- Vertex 3 Zcoordinate
    55.934884526301175,       !- Vertex 4 Xcoordinate
    175.45588695583865,       !- Vertex 4 Ycoordinate
    4;                        !- Vertex 4 Zcoordinate

BUILDINGSURFACE:DETAILED,
    Block Poly_10_Transport Storey 0 Wall 0004,    !- Name
    Wall,                     !- Surface Type
    HSCWZ_Public&Industrial_2015_ExtWall,    !- Construction Name
    Block Poly_10_Transport Storey 0,    !- Zone Name
    ,                         !- Space Name
    Outdoors,                 !- Outside Boundary Condition
    ,                         !- Outside Boundary Condition Object
    SunExposed,               !- Sun Exposure
    WindExposed,              !- Wind Exposure
    autocalculate,            !- View Factor to Ground
    autocalculate,            !- Number of Vertices
    55.934884526301175,       !- Vertex 1 Xcoordinate
    175.45588695583865,       !- Vertex 1 Ycoordinate
    4,                        !- Vertex 1 Zcoordinate
    55.934884526301175,       !- Vertex 2 Xcoordinate
    175.45588695583865,       !- Vertex 2 Ycoordinate
    0,                        !- Vertex 2 Zcoordinate
    39.0618533535162,         !- Vertex 3 Xcoordinate
    175.69530907273293,       !- Vertex 3 Ycoordinate
    0,                        !- Vertex 3 Zcoordinate
    39.0618533535162,         !- Vertex 4 Xcoordinate
    175.69530907273293,       !- Vertex 4 Ycoordinate
    4;                        !- Vertex 4 Zcoordinate

BUILDINGSURFACE:DETAILED,
    Block Poly_10_Transport Storey 0 Wall 0005,    !- Name
    Wall,                     !- Surface Type
    HSCWZ_Public&Industrial_2015_ExtWall,    !- Construction Name
    Block Poly_10_Transport Storey 0,    !- Zone Name
    ,                         !- Space Name
    Outdoors,                 !- Outside Boundary Condition
    ,                         !- Outside Boundary Condition Object
    SunExposed,               !- Sun Exposure
    WindExposed,              !- Wind Exposure
    autocalculate,            !- View Factor to Ground
    autocalculate,            !- Number of Vertices
    39.0618533535162,         !- Vertex 1 Xcoordinate
    175.69530907273293,       !- Vertex 1 Ycoordinate
    4,                        !- Vertex 1 Zcoordinate
    39.0618533535162,         !- Vertex 2 Xcoordinate
    175.69530907273293,       !- Vertex 2 Ycoordinate
    0,                        !- Vertex 2 Zcoordinate
    38.42067523446167,        !- Vertex 3 Xcoordinate
    170.8261444461532,        !- Vertex 3 Ycoordinate
    0,                        !- Vertex 3 Zcoordinate
    38.42067523446167,        !- Vertex 4 Xcoordinate
    170.8261444461532,        !- Vertex 4 Ycoordinate
    4;                        !- Vertex 4 Zcoordinate

BUILDINGSURFACE:DETAILED,
    Block Poly_10_Transport Storey 0 Wall 0006,    !- Name
    Wall,                     !- Surface Type
    HSCWZ_Public&Industrial_2015_ExtWall,    !- Construction Name
    Block Poly_10_Transport Storey 0,    !- Zone Name
    ,                         !- Space Name
    Outdoors,                 !- Outside Boundary Condition
    ,                         !- Outside Boundary Condition Object
    SunExposed,               !- Sun Exposure
    WindExposed,              !- Wind Exposure
    autocalculate,            !- View Factor to Ground
    autocalculate,            !- Number of Vertices
    38.42067523446167,        !- Vertex 1 Xcoordinate
    170.8261444461532,        !- Vertex 1 Ycoordinate
    4,                        !- Vertex 1 Zcoordinate
    38.42067523446167,        !- Vertex 2 Xcoordinate
    170.8261444461532,        !- Vertex 2 Ycoordinate
    0,                        !- Vertex 2 Zcoordinate
    33.349419859354384,       !- Vertex 3 Xcoordinate
    169.567673698999,         !- Vertex 3 Ycoordinate
    0,                        !- Vertex 3 Zcoordinate
    33.349419859354384,       !- Vertex 4 Xcoordinate
    169.567673698999,         !- Vertex 4 Ycoordinate
    4;                        !- Vertex 4 Zcoordinate

BUILDINGSURFACE:DETAILED,
    Block Poly_10_Transport Storey 0 Wall 0007,    !- Name
    Wall,                     !- Surface Type
    HSCWZ_Public&Industrial_2015_ExtWall,    !- Construction Name
    Block Poly_10_Transport Storey 0,    !- Zone Name
    ,                         !- Space Name
    Outdoors,                 !- Outside Boundary Condition
    ,                         !- Outside Boundary Condition Object
    SunExposed,               !- Sun Exposure
    WindExposed,              !- Wind Exposure
    autocalculate,            !- View Factor to Ground
    autocalculate,            !- Number of Vertices
    33.349419859354384,       !- Vertex 1 Xcoordinate
    169.567673698999,         !- Vertex 1 Ycoordinate
    4,                        !- Vertex 1 Zcoordinate
    33.349419859354384,       !- Vertex 2 Xcoordinate
    169.567673698999,         !- Vertex 2 Ycoordinate
    0,                        !- Vertex 2 Zcoordinate
    29.100573969306424,       !- Vertex 3 Xcoordinate
    105.32359098503366,       !- Vertex 3 Ycoordinate
    0,                        !- Vertex 3 Zcoordinate
    29.100573969306424,       !- Vertex 4 Xcoordinate
    105.32359098503366,       !- Vertex 4 Ycoordinate
    4;                        !- Vertex 4 Zcoordinate

BUILDINGSURFACE:DETAILED,
    Block Poly_10_Transport Storey 0 Wall 0008,    !- Name
    Wall,                     !- Surface Type
    HSCWZ_Public&Industrial_2015_ExtWall,    !- Construction Name
    Block Poly_10_Transport Storey 0,    !- Zone Name
    ,                         !- Space Name
    Outdoors,                 !- Outside Boundary Condition
    ,                         !- Outside Boundary Condition Object
    SunExposed,               !- Sun Exposure
    WindExposed,              !- Wind Exposure
    autocalculate,            !- View Factor to Ground
    autocalculate,            !- Number of Vertices
    29.100573969306424,       !- Vertex 1 Xcoordinate
    105.32359098503366,       !- Vertex 1 Ycoordinate
    4,                        !- Vertex 1 Zcoordinate
    29.100573969306424,       !- Vertex 2 Xcoordinate
    105.32359098503366,       !- Vertex 2 Ycoordinate
    0,                        !- Vertex 2 Zcoordinate
    19.74987050244817,        !- Vertex 3 Xcoordinate
    64.5454031988047,         !- Vertex 3 Ycoordinate
    0,                        !- Vertex 3 Zcoordinate
    19.74987050244817,        !- Vertex 4 Xcoordinate
    64.5454031988047,         !- Vertex 4 Ycoordinate
    4;                        !- Vertex 4 Zcoordinate

BUILDINGSURFACE:DETAILED,
    Block Poly_10_Transport Storey 0 Wall 0009,    !- Name
    Wall,                     !- Surface Type
    HSCWZ_Public&Industrial_2015_ExtWall,    !- Construction Name
    Block Poly_10_Transport Storey 0,    !- Zone Name
    ,                         !- Space Name
    Outdoors,                 !- Outside Boundary Condition
    ,                         !- Outside Boundary Condition Object
    SunExposed,               !- Sun Exposure
    WindExposed,              !- Wind Exposure
    autocalculate,            !- View Factor to Ground
    autocalculate,            !- Number of Vertices
    19.74987050244817,        !- Vertex 1 Xcoordinate
    64.5454031988047,         !- Vertex 1 Ycoordinate
    4,                        !- Vertex 1 Zcoordinate
    19.74987050244817,        !- Vertex 2 Xcoordinate
    64.5454031988047,         !- Vertex 2 Ycoordinate
    0,                        !- Vertex 2 Zcoordinate
    6.714302250882611,        !- Vertex 3 Xcoordinate
    26.147781824227422,       !- Vertex 3 Ycoordinate
    0,                        !- Vertex 3 Zcoordinate
    6.714302250882611,        !- Vertex 4 Xcoordinate
    26.147781824227422,       !- Vertex 4 Ycoordinate
    4;                        !- Vertex 4 Zcoordinate

BUILDINGSURFACE:DETAILED,
    Block Poly_10_Transport Storey 0 Wall 0010,    !- Name
    Wall,                     !- Surface Type
    HSCWZ_Public&Industrial_2015_ExtWall,    !- Construction Name
    Block Poly_10_Transport Storey 0,    !- Zone Name
    ,                         !- Space Name
    Outdoors,                 !- Outside Boundary Condition
    ,                         !- Outside Boundary Condition Object
    SunExposed,               !- Sun Exposure
    WindExposed,              !- Wind Exposure
    autocalculate,            !- View Factor to Ground
    autocalculate,            !- Number of Vertices
    6.714302250882611,        !- Vertex 1 Xcoordinate
    26.147781824227422,       !- Vertex 1 Ycoordinate
    4,                        !- Vertex 1 Zcoordinate
    6.714302250882611,        !- Vertex 2 Xcoordinate
    26.147781824227422,       !- Vertex 2 Ycoordinate
    0,                        !- Vertex 2 Zcoordinate
    11.74629984179046,        !- Vertex 3 Xcoordinate
    24.63506024889648,        !- Vertex 3 Ycoordinate
    0,                        !- Vertex 3 Zcoordinate
    11.74629984179046,        !- Vertex 4 Xcoordinate
    24.63506024889648,        !- Vertex 4 Ycoordinate
    4;                        !- Vertex 4 Zcoordinate

BUILDINGSURFACE:DETAILED,
    Block Poly_10_Transport Storey 0 Wall 0011,    !- Name
    Wall,                     !- Surface Type
    HSCWZ_Public&Industrial_2015_ExtWall,    !- Construction Name
    Block Poly_10_Transport Storey 0,    !- Zone Name
    ,                         !- Space Name
    Outdoors,                 !- Outside Boundary Condition
    ,                         !- Outside Boundary Condition Object
    SunExposed,               !- Sun Exposure
    WindExposed,              !- Wind Exposure
    autocalculate,            !- View Factor to Ground
    autocalculate,            !- Number of Vertices
    11.74629984179046,        !- Vertex 1 Xcoordinate
    24.63506024889648,        !- Vertex 1 Ycoordinate
    4,                        !- Vertex 1 Zcoordinate
    11.74629984179046,        !- Vertex 2 Xcoordinate
    24.63506024889648,        !- Vertex 2 Ycoordinate
    0,                        !- Vertex 2 Zcoordinate
    0,                        !- Vertex 3 Xcoordinate
    3.182198490481824,        !- Vertex 3 Ycoordinate
    0,                        !- Vertex 3 Zcoordinate
    0,                        !- Vertex 4 Xcoordinate
    3.182198490481824,        !- Vertex 4 Ycoordinate
    4;                        !- Vertex 4 Zcoordinate

BUILDINGSURFACE:DETAILED,
    Block Poly_10_Transport Storey 0 Wall 0012,    !- Name
    Wall,                     !- Surface Type
    HSCWZ_Public&Industrial_2015_ExtWall,    !- Construction Name
    Block Poly_10_Transport Storey 0,    !- Zone Name
    ,                         !- Space Name
    Outdoors,                 !- Outside Boundary Condition
    ,                         !- Outside Boundary Condition Object
    SunExposed,               !- Sun Exposure
    WindExposed,              !- Wind Exposure
    autocalculate,            !- View Factor to Ground
    autocalculate,            !- Number of Vertices
    0,                        !- Vertex 1 Xcoordinate
    3.182198490481824,        !- Vertex 1 Ycoordinate
    4,                        !- Vertex 1 Zcoordinate
    0,                        !- Vertex 2 Xcoordinate
    3.182198490481824,        !- Vertex 2 Ycoordinate
    0,                        !- Vertex 2 Zcoordinate
    5.48505680821836,         !- Vertex 3 Xcoordinate
    0,                        !- Vertex 3 Ycoordinate
    0,                        !- Vertex 3 Zcoordinate
    5.48505680821836,         !- Vertex 4 Xcoordinate
    0,                        !- Vertex 4 Ycoordinate
    4;                        !- Vertex 4 Zcoordinate

BUILDINGSURFACE:DETAILED,
    Block Poly_10_Transport Storey 0 Wall 0013,    !- Name
    Wall,                     !- Surface Type
    HSCWZ_Public&Industrial_2015_ExtWall,    !- Construction Name
    Block Poly_10_Transport Storey 0,    !- Zone Name
    ,                         !- Space Name
    Outdoors,                 !- Outside Boundary Condition
    ,                         !- Outside Boundary Condition Object
    SunExposed,               !- Sun Exposure
    WindExposed,              !- Wind Exposure
    autocalculate,            !- View Factor to Ground
    autocalculate,            !- Number of Vertices
    5.48505680821836,         !- Vertex 1 Xcoordinate
    0,                        !- Vertex 1 Ycoordinate
    4,                        !- Vertex 1 Zcoordinate
    5.48505680821836,         !- Vertex 2 Xcoordinate
    0,                        !- Vertex 2 Ycoordinate
    0,                        !- Vertex 2 Zcoordinate
    19.96852575952653,        !- Vertex 3 Xcoordinate
    12.76619346253574,        !- Vertex 3 Ycoordinate
    0,                        !- Vertex 3 Zcoordinate
    19.96852575952653,        !- Vertex 4 Xcoordinate
    12.76619346253574,        !- Vertex 4 Ycoordinate
    4;                        !- Vertex 4 Zcoordinate

BUILDINGSURFACE:DETAILED,
    Block Poly_10_Transport Storey 0 Wall 0014,    !- Name
    Wall,                     !- Surface Type
    HSCWZ_Public&Industrial_2015_ExtWall,    !- Construction Name
    Block Poly_10_Transport Storey 0,    !- Zone Name
    ,                         !- Space Name
    Outdoors,                 !- Outside Boundary Condition
    ,                         !- Outside Boundary Condition Object
    SunExposed,               !- Sun Exposure
    WindExposed,              !- Wind Exposure
    autocalculate,            !- View Factor to Ground
    autocalculate,            !- Number of Vertices
    19.96852575952653,        !- Vertex 1 Xcoordinate
    12.76619346253574,        !- Vertex 1 Ycoordinate
    4,                        !- Vertex 1 Zcoordinate
    19.96852575952653,        !- Vertex 2 Xcoordinate
    12.76619346253574,        !- Vertex 2 Ycoordinate
    0,                        !- Vertex 2 Zcoordinate
    43.61737599730259,        !- Vertex 3 Xcoordinate
    39.81539847282693,        !- Vertex 3 Ycoordinate
    0,                        !- Vertex 3 Zcoordinate
    43.61737599730259,        !- Vertex 4 Xcoordinate
    39.81539847282693,        !- Vertex 4 Ycoordinate
    4;                        !- Vertex 4 Zcoordinate

BUILDINGSURFACE:DETAILED,
    Block Poly_10_Transport Storey 0 Wall 0015,    !- Name
    Wall,                     !- Surface Type
    HSCWZ_Public&Industrial_2015_ExtWall,    !- Construction Name
    Block Poly_10_Transport Storey 0,    !- Zone Name
    ,                         !- Space Name
    Outdoors,                 !- Outside Boundary Condition
    ,                         !- Outside Boundary Condition Object
    SunExposed,               !- Sun Exposure
    WindExposed,              !- Wind Exposure
    autocalculate,            !- View Factor to Ground
    autocalculate,            !- Number of Vertices
    43.61737599730259,        !- Vertex 1 Xcoordinate
    39.81539847282693,        !- Vertex 1 Ycoordinate
    4,                        !- Vertex 1 Zcoordinate
    43.61737599730259,        !- Vertex 2 Xcoordinate
    39.81539847282693,        !- Vertex 2 Ycoordinate
    0,                        !- Vertex 2 Zcoordinate
    52.13433890312445,        !- Vertex 3 Xcoordinate
    55.43803394399583,        !- Vertex 3 Ycoordinate
    0,                        !- Vertex 3 Zcoordinate
    52.13433890312445,        !- Vertex 4 Xcoordinate
    55.43803394399583,        !- Vertex 4 Ycoordinate
    4;                        !- Vertex 4 Zcoordinate

BUILDINGSURFACE:DETAILED,
    Block Poly_10_Transport Storey 0 Wall 0016,    !- Name
    Wall,                     !- Surface Type
    HSCWZ_Public&Industrial_2015_ExtWall,    !- Construction Name
    Block Poly_10_Transport Storey 0,    !- Zone Name
    ,                         !- Space Name
    Outdoors,                 !- Outside Boundary Condition
    ,                         !- Outside Boundary Condition Object
    SunExposed,               !- Sun Exposure
    WindExposed,              !- Wind Exposure
    autocalculate,            !- View Factor to Ground
    autocalculate,            !- Number of Vertices
    52.13433890312445,        !- Vertex 1 Xcoordinate
    55.43803394399583,        !- Vertex 1 Ycoordinate
    4,                        !- Vertex 1 Zcoordinate
    52.13433890312445,        !- Vertex 2 Xcoordinate
    55.43803394399583,        !- Vertex 2 Ycoordinate
    0,                        !- Vertex 2 Zcoordinate
    58.73998370452318,        !- Vertex 3 Xcoordinate
    70.75518421921879,        !- Vertex 3 Ycoordinate
    0,                        !- Vertex 3 Zcoordinate
    58.73998370452318,        !- Vertex 4 Xcoordinate
    70.75518421921879,        !- Vertex 4 Ycoordinate
    4;                        !- Vertex 4 Zcoordinate

BUILDINGSURFACE:DETAILED,
    Block Poly_10_Transport Storey 0 Wall 0017,    !- Name
    Wall,                     !- Surface Type
    HSCWZ_Public&Industrial_2015_ExtWall,    !- Construction Name
    Block Poly_10_Transport Storey 0,    !- Zone Name
    ,                         !- Space Name
    Outdoors,                 !- Outside Boundary Condition
    ,                         !- Outside Boundary Condition Object
    SunExposed,               !- Sun Exposure
    WindExposed,              !- Wind Exposure
    autocalculate,            !- View Factor to Ground
    autocalculate,            !- Number of Vertices
    58.73998370452318,        !- Vertex 1 Xcoordinate
    70.75518421921879,        !- Vertex 1 Ycoordinate
    4,                        !- Vertex 1 Zcoordinate
    58.73998370452318,        !- Vertex 2 Xcoordinate
    70.75518421921879,        !- Vertex 2 Ycoordinate
    0,                        !- Vertex 2 Zcoordinate
    62.13431701203808,        !- Vertex 3 Xcoordinate
    88.2244211435318,         !- Vertex 3 Ycoordinate
    0,                        !- Vertex 3 Zcoordinate
    62.13431701203808,        !- Vertex 4 Xcoordinate
    88.2244211435318,         !- Vertex 4 Ycoordinate
    4;                        !- Vertex 4 Zcoordinate

BUILDINGSURFACE:DETAILED,
    Block Poly_10_Transport Storey 0 Wall 0018,    !- Name
    Wall,                     !- Surface Type
    HSCWZ_Public&Industrial_2015_ExtWall,    !- Construction Name
    Block Poly_10_Transport Storey 0,    !- Zone Name
    ,                         !- Space Name
    Outdoors,                 !- Outside Boundary Condition
    ,                         !- Outside Boundary Condition Object
    SunExposed,               !- Sun Exposure
    WindExposed,              !- Wind Exposure
    autocalculate,            !- View Factor to Ground
    autocalculate,            !- Number of Vertices
    62.13431701203808,        !- Vertex 1 Xcoordinate
    88.2244211435318,         !- Vertex 1 Ycoordinate
    4,                        !- Vertex 1 Zcoordinate
    62.13431701203808,        !- Vertex 2 Xcoordinate
    88.2244211435318,         !- Vertex 2 Ycoordinate
    0,                        !- Vertex 2 Zcoordinate
    64.09399570594542,        !- Vertex 3 Xcoordinate
    105.38140459405258,       !- Vertex 3 Ycoordinate
    0,                        !- Vertex 3 Zcoordinate
    64.09399570594542,        !- Vertex 4 Xcoordinate
    105.38140459405258,       !- Vertex 4 Ycoordinate
    4;                        !- Vertex 4 Zcoordinate

BUILDINGSURFACE:DETAILED,
    Block Poly_10_Transport Storey 0 Wall 0019,    !- Name
    Wall,                     !- Surface Type
    HSCWZ_Public&Industrial_2015_ExtWall,    !- Construction Name
    Block Poly_10_Transport Storey 0,    !- Zone Name
    ,                         !- Space Name
    Outdoors,                 !- Outside Boundary Condition
    ,                         !- Outside Boundary Condition Object
    SunExposed,               !- Sun Exposure
    WindExposed,              !- Wind Exposure
    autocalculate,            !- View Factor to Ground
    autocalculate,            !- Number of Vertices
    64.09399570594542,        !- Vertex 1 Xcoordinate
    105.38140459405258,       !- Vertex 1 Ycoordinate
    4,                        !- Vertex 1 Zcoordinate
    64.09399570594542,        !- Vertex 2 Xcoordinate
    105.38140459405258,       !- Vertex 2 Ycoordinate
    0,                        !- Vertex 2 Zcoordinate
    67.36129693506518,        !- Vertex 3 Xcoordinate
    100.45678756013513,       !- Vertex 3 Ycoordinate
    0,                        !- Vertex 3 Zcoordinate
    67.36129693506518,        !- Vertex 4 Xcoordinate
    100.45678756013513,       !- Vertex 4 Ycoordinate
    4;                        !- Vertex 4 Zcoordinate

BUILDINGSURFACE:DETAILED,
    Block Poly_10_Transport Storey 0 Wall 0020,    !- Name
    Wall,                     !- Surface Type
    HSCWZ_Public&Industrial_2015_ExtWall,    !- Construction Name
    Block Poly_10_Transport Storey 0,    !- Zone Name
    ,                         !- Space Name
    Outdoors,                 !- Outside Boundary Condition
    ,                         !- Outside Boundary Condition Object
    SunExposed,               !- Sun Exposure
    WindExposed,              !- Wind Exposure
    autocalculate,            !- View Factor to Ground
    autocalculate,            !- Number of Vertices
    67.36129693506518,        !- Vertex 1 Xcoordinate
    100.45678756013513,       !- Vertex 1 Ycoordinate
    4,                        !- Vertex 1 Zcoordinate
    67.36129693506518,        !- Vertex 2 Xcoordinate
    100.45678756013513,       !- Vertex 2 Ycoordinate
    0,                        !- Vertex 2 Zcoordinate
    70.38193054415751,        !- Vertex 3 Xcoordinate
    98.3074109419249,         !- Vertex 3 Ycoordinate
    0,                        !- Vertex 3 Zcoordinate
    70.38193054415751,        !- Vertex 4 Xcoordinate
    98.3074109419249,         !- Vertex 4 Ycoordinate
    4;                        !- Vertex 4 Zcoordinate

BUILDINGSURFACE:DETAILED,
    Block Poly_10_Transport Storey 0 Wall 0021,    !- Name
    Wall,                     !- Surface Type
    HSCWZ_Public&Industrial_2015_ExtWall,    !- Construction Name
    Block Poly_10_Transport Storey 0,    !- Zone Name
    ,                         !- Space Name
    Outdoors,                 !- Outside Boundary Condition
    ,                         !- Outside Boundary Condition Object
    SunExposed,               !- Sun Exposure
    WindExposed,              !- Wind Exposure
    autocalculate,            !- View Factor to Ground
    autocalculate,            !- Number of Vertices
    70.38193054415751,        !- Vertex 1 Xcoordinate
    98.3074109419249,         !- Vertex 1 Ycoordinate
    4,                        !- Vertex 1 Zcoordinate
    70.38193054415751,        !- Vertex 2 Xcoordinate
    98.3074109419249,         !- Vertex 2 Ycoordinate
    0,                        !- Vertex 2 Zcoordinate
    79.63351727463305,        !- Vertex 3 Xcoordinate
    98.50877078669146,        !- Vertex 3 Ycoordinate
    0,                        !- Vertex 3 Zcoordinate
    79.63351727463305,        !- Vertex 4 Xcoordinate
    98.50877078669146,        !- Vertex 4 Ycoordinate
    4;                        !- Vertex 4 Zcoordinate

BUILDINGSURFACE:DETAILED,
    Block Poly_10_Transport Storey 0 Wall 0022,    !- Name
    Wall,                     !- Surface Type
    HSCWZ_Public&Industrial_2015_ExtWall,    !- Construction Name
    Block Poly_10_Transport Storey 0,    !- Zone Name
    ,                         !- Space Name
    Outdoors,                 !- Outside Boundary Condition
    ,                         !- Outside Boundary Condition Object
    SunExposed,               !- Sun Exposure
    WindExposed,              !- Wind Exposure
    autocalculate,            !- View Factor to Ground
    autocalculate,            !- Number of Vertices
    79.63351727463305,        !- Vertex 1 Xcoordinate
    98.50877078669146,        !- Vertex 1 Ycoordinate
    4,                        !- Vertex 1 Zcoordinate
    79.63351727463305,        !- Vertex 2 Xcoordinate
    98.50877078669146,        !- Vertex 2 Ycoordinate
    0,                        !- Vertex 2 Zcoordinate
    84.16742233437253,        !- Vertex 3 Xcoordinate
    102.2140186545439,        !- Vertex 3 Ycoordinate
    0,                        !- Vertex 3 Zcoordinate
    84.16742233437253,        !- Vertex 4 Xcoordinate
    102.2140186545439,        !- Vertex 4 Ycoordinate
    4;                        !- Vertex 4 Zcoordinate

BUILDINGSURFACE:DETAILED,
    Block Poly_10_Transport Storey 0 Wall 0023,    !- Name
    Wall,                     !- Surface Type
    HSCWZ_Public&Industrial_2015_ExtWall,    !- Construction Name
    Block Poly_10_Transport Storey 0,    !- Zone Name
    ,                         !- Space Name
    Outdoors,                 !- Outside Boundary Condition
    ,                         !- Outside Boundary Condition Object
    SunExposed,               !- Sun Exposure
    WindExposed,              !- Wind Exposure
    autocalculate,            !- View Factor to Ground
    autocalculate,            !- Number of Vertices
    84.16742233437253,        !- Vertex 1 Xcoordinate
    102.2140186545439,        !- Vertex 1 Ycoordinate
    4,                        !- Vertex 1 Zcoordinate
    84.16742233437253,        !- Vertex 2 Xcoordinate
    102.2140186545439,        !- Vertex 2 Ycoordinate
    0,                        !- Vertex 2 Zcoordinate
    86.42130297445692,        !- Vertex 3 Xcoordinate
    106.5059594810009,        !- Vertex 3 Ycoordinate
    0,                        !- Vertex 3 Zcoordinate
    86.42130297445692,        !- Vertex 4 Xcoordinate
    106.5059594810009,        !- Vertex 4 Ycoordinate
    4;                        !- Vertex 4 Zcoordinate

BUILDINGSURFACE:DETAILED,
    Block Poly_10_Transport Storey 0 Wall 0024,    !- Name
    Wall,                     !- Surface Type
    HSCWZ_Public&Industrial_2015_ExtWall,    !- Construction Name
    Block Poly_10_Transport Storey 0,    !- Zone Name
    ,                         !- Space Name
    Outdoors,                 !- Outside Boundary Condition
    ,                         !- Outside Boundary Condition Object
    SunExposed,               !- Sun Exposure
    WindExposed,              !- Wind Exposure
    autocalculate,            !- View Factor to Ground
    autocalculate,            !- Number of Vertices
    86.42130297445692,        !- Vertex 1 Xcoordinate
    106.5059594810009,        !- Vertex 1 Ycoordinate
    4,                        !- Vertex 1 Zcoordinate
    86.42130297445692,        !- Vertex 2 Xcoordinate
    106.5059594810009,        !- Vertex 2 Ycoordinate
    0,                        !- Vertex 2 Zcoordinate
    87.41448799846694,        !- Vertex 3 Xcoordinate
    116.02665463322774,       !- Vertex 3 Ycoordinate
    0,                        !- Vertex 3 Zcoordinate
    87.41448799846694,        !- Vertex 4 Xcoordinate
    116.02665463322774,       !- Vertex 4 Ycoordinate
    4;                        !- Vertex 4 Zcoordinate

BUILDINGSURFACE:DETAILED,
    Block Poly_10_Transport Storey 0 Wall 0025,    !- Name
    Wall,                     !- Surface Type
    HSCWZ_Public&Industrial_2015_ExtWall,    !- Construction Name
    Block Poly_10_Transport Storey 0,    !- Zone Name
    ,                         !- Space Name
    Outdoors,                 !- Outside Boundary Condition
    ,                         !- Outside Boundary Condition Object
    SunExposed,               !- Sun Exposure
    WindExposed,              !- Wind Exposure
    autocalculate,            !- View Factor to Ground
    autocalculate,            !- Number of Vertices
    87.41448799846694,        !- Vertex 1 Xcoordinate
    116.02665463322774,       !- Vertex 1 Ycoordinate
    4,                        !- Vertex 1 Zcoordinate
    87.41448799846694,        !- Vertex 2 Xcoordinate
    116.02665463322774,       !- Vertex 2 Ycoordinate
    0,                        !- Vertex 2 Zcoordinate
    85.75263154995628,        !- Vertex 3 Xcoordinate
    126.5828396230936,        !- Vertex 3 Ycoordinate
    0,                        !- Vertex 3 Zcoordinate
    85.75263154995628,        !- Vertex 4 Xcoordinate
    126.5828396230936,        !- Vertex 4 Ycoordinate
    4;                        !- Vertex 4 Zcoordinate

BUILDINGSURFACE:DETAILED,
    Block Poly_10_Transport Storey 0 Wall 0026,    !- Name
    Wall,                     !- Surface Type
    HSCWZ_Public&Industrial_2015_ExtWall,    !- Construction Name
    Block Poly_10_Transport Storey 0,    !- Zone Name
    ,                         !- Space Name
    Outdoors,                 !- Outside Boundary Condition
    ,                         !- Outside Boundary Condition Object
    SunExposed,               !- Sun Exposure
    WindExposed,              !- Wind Exposure
    autocalculate,            !- View Factor to Ground
    autocalculate,            !- Number of Vertices
    85.75263154995628,        !- Vertex 1 Xcoordinate
    126.5828396230936,        !- Vertex 1 Ycoordinate
    4,                        !- Vertex 1 Zcoordinate
    85.75263154995628,        !- Vertex 2 Xcoordinate
    126.5828396230936,        !- Vertex 2 Ycoordinate
    0,                        !- Vertex 2 Zcoordinate
    82.37585028866306,        !- Vertex 3 Xcoordinate
    130.51117793750018,       !- Vertex 3 Ycoordinate
    0,                        !- Vertex 3 Zcoordinate
    82.37585028866306,        !- Vertex 4 Xcoordinate
    130.51117793750018,       !- Vertex 4 Ycoordinate
    4;                        !- Vertex 4 Zcoordinate

BUILDINGSURFACE:DETAILED,
    Block Poly_10_Transport Storey 0 Wall 0027,    !- Name
    Wall,                     !- Surface Type
    HSCWZ_Public&Industrial_2015_ExtWall,    !- Construction Name
    Block Poly_10_Transport Storey 0,    !- Zone Name
    ,                         !- Space Name
    Outdoors,                 !- Outside Boundary Condition
    ,                         !- Outside Boundary Condition Object
    SunExposed,               !- Sun Exposure
    WindExposed,              !- Wind Exposure
    autocalculate,            !- View Factor to Ground
    autocalculate,            !- Number of Vertices
    82.37585028866306,        !- Vertex 1 Xcoordinate
    130.51117793750018,       !- Vertex 1 Ycoordinate
    4,                        !- Vertex 1 Zcoordinate
    82.37585028866306,        !- Vertex 2 Xcoordinate
    130.51117793750018,       !- Vertex 2 Ycoordinate
    0,                        !- Vertex 2 Zcoordinate
    79.72867442009738,        !- Vertex 3 Xcoordinate
    132.1009056251496,        !- Vertex 3 Ycoordinate
    0,                        !- Vertex 3 Zcoordinate
    79.72867442009738,        !- Vertex 4 Xcoordinate
    132.1009056251496,        !- Vertex 4 Ycoordinate
    4;                        !- Vertex 4 Zcoordinate

BUILDINGSURFACE:DETAILED,
    Block Poly_10_Transport Storey 0 Wall 0028,    !- Name
    Wall,                     !- Surface Type
    HSCWZ_Public&Industrial_2015_ExtWall,    !- Construction Name
    Block Poly_10_Transport Storey 0,    !- Zone Name
    ,                         !- Space Name
    Outdoors,                 !- Outside Boundary Condition
    ,                         !- Outside Boundary Condition Object
    SunExposed,               !- Sun Exposure
    WindExposed,              !- Wind Exposure
    autocalculate,            !- View Factor to Ground
    autocalculate,            !- Number of Vertices
    79.72867442009738,        !- Vertex 1 Xcoordinate
    132.1009056251496,        !- Vertex 1 Ycoordinate
    4,                        !- Vertex 1 Zcoordinate
    79.72867442009738,        !- Vertex 2 Xcoordinate
    132.1009056251496,        !- Vertex 2 Ycoordinate
    0,                        !- Vertex 2 Zcoordinate
    72.94464333995711,        !- Vertex 3 Xcoordinate
    131.0884525887668,        !- Vertex 3 Ycoordinate
    0,                        !- Vertex 3 Zcoordinate
    72.94464333995711,        !- Vertex 4 Xcoordinate
    131.0884525887668,        !- Vertex 4 Ycoordinate
    4;                        !- Vertex 4 Zcoordinate

BUILDINGSURFACE:DETAILED,
    Block Poly_10_Transport Storey 0 Wall 0029,    !- Name
    Wall,                     !- Surface Type
    HSCWZ_Public&Industrial_2015_ExtWall,    !- Construction Name
    Block Poly_10_Transport Storey 0,    !- Zone Name
    ,                         !- Space Name
    Outdoors,                 !- Outside Boundary Condition
    ,                         !- Outside Boundary Condition Object
    SunExposed,               !- Sun Exposure
    WindExposed,              !- Wind Exposure
    autocalculate,            !- View Factor to Ground
    autocalculate,            !- Number of Vertices
    72.94464333995711,        !- Vertex 1 Xcoordinate
    131.0884525887668,        !- Vertex 1 Ycoordinate
    4,                        !- Vertex 1 Zcoordinate
    72.94464333995711,        !- Vertex 2 Xcoordinate
    131.0884525887668,        !- Vertex 2 Ycoordinate
    0,                        !- Vertex 2 Zcoordinate
    68.41074579709675,        !- Vertex 3 Xcoordinate
    127.38320972304793,       !- Vertex 3 Ycoordinate
    0,                        !- Vertex 3 Zcoordinate
    68.41074579709675,        !- Vertex 4 Xcoordinate
    127.38320972304793,       !- Vertex 4 Ycoordinate
    4;                        !- Vertex 4 Zcoordinate

BUILDINGSURFACE:DETAILED,
    Block Poly_10_Transport Storey 0 Wall 0030,    !- Name
    Wall,                     !- Surface Type
    HSCWZ_Public&Industrial_2015_ExtWall,    !- Construction Name
    Block Poly_10_Transport Storey 0,    !- Zone Name
    ,                         !- Space Name
    Outdoors,                 !- Outside Boundary Condition
    ,                         !- Outside Boundary Condition Object
    SunExposed,               !- Sun Exposure
    WindExposed,              !- Wind Exposure
    autocalculate,            !- View Factor to Ground
    autocalculate,            !- Number of Vertices
    68.41074579709675,        !- Vertex 1 Xcoordinate
    127.38320972304793,       !- Vertex 1 Ycoordinate
    4,                        !- Vertex 1 Zcoordinate
    68.41074579709675,        !- Vertex 2 Xcoordinate
    127.38320972304793,       !- Vertex 2 Ycoordinate
    0,                        !- Vertex 2 Zcoordinate
    66.26634374901187,        !- Vertex 3 Xcoordinate
    124.0875455737114,        !- Vertex 3 Ycoordinate
    0,                        !- Vertex 3 Zcoordinate
    66.26634374901187,        !- Vertex 4 Xcoordinate
    124.0875455737114,        !- Vertex 4 Ycoordinate
    4;                        !- Vertex 4 Zcoordinate

BUILDINGSURFACE:DETAILED,
    Block Poly_10_Transport Storey 0 Wall 0031,    !- Name
    Wall,                     !- Surface Type
    HSCWZ_Public&Industrial_2015_ExtWall,    !- Construction Name
    Block Poly_10_Transport Storey 0,    !- Zone Name
    ,                         !- Space Name
    Outdoors,                 !- Outside Boundary Condition
    ,                         !- Outside Boundary Condition Object
    SunExposed,               !- Sun Exposure
    WindExposed,              !- Wind Exposure
    autocalculate,            !- View Factor to Ground
    autocalculate,            !- Number of Vertices
    66.26634374901187,        !- Vertex 1 Xcoordinate
    124.0875455737114,        !- Vertex 1 Ycoordinate
    4,                        !- Vertex 1 Zcoordinate
    66.26634374901187,        !- Vertex 2 Xcoordinate
    124.0875455737114,        !- Vertex 2 Ycoordinate
    0,                        !- Vertex 2 Zcoordinate
    66.81060939311283,        !- Vertex 3 Xcoordinate
    128.8472163812257,        !- Vertex 3 Ycoordinate
    0,                        !- Vertex 3 Zcoordinate
    66.81060939311283,        !- Vertex 4 Xcoordinate
    128.8472163812257,        !- Vertex 4 Ycoordinate
    4;                        !- Vertex 4 Zcoordinate

BUILDINGSURFACE:DETAILED,
    Block Poly_10_Transport Storey 0 Floor 0001,    !- Name
    Floor,                    !- Surface Type
    HSCWZ_Public&Industrial_2015_FloorGround,    !- Construction Name
    Block Poly_10_Transport Storey 0,    !- Zone Name
    ,                         !- Space Name
    Ground,                   !- Outside Boundary Condition
    ,                         !- Outside Boundary Condition Object
    NoSun,                    !- Sun Exposure
    NoWind,                   !- Wind Exposure
    autocalculate,            !- View Factor to Ground
    autocalculate,            !- Number of Vertices
    60.448675296793226,       !- Vertex 1 Xcoordinate
    164.30488186795264,       !- Vertex 1 Ycoordinate
    0,                        !- Vertex 1 Zcoordinate
    63.54513706220314,        !- Vertex 2 Xcoordinate
    154.06094518117607,       !- Vertex 2 Ycoordinate
    0,                        !- Vertex 2 Zcoordinate
    66.81060939311283,        !- Vertex 3 Xcoordinate
    128.8472163812257,        !- Vertex 3 Ycoordinate
    0,                        !- Vertex 3 Zcoordinate
    66.26634374901187,        !- Vertex 4 Xcoordinate
    124.0875455737114,        !- Vertex 4 Ycoordinate
    0,                        !- Vertex 4 Zcoordinate
    68.41074579709675,        !- Vertex 5 Xcoordinate
    127.38320972304793,       !- Vertex 5 Ycoordinate
    0,                        !- Vertex 5 Zcoordinate
    72.94464333995711,        !- Vertex 6 Xcoordinate
    131.0884525887668,        !- Vertex 6 Ycoordinate
    0,                        !- Vertex 6 Zcoordinate
    79.72867442009738,        !- Vertex 7 Xcoordinate
    132.1009056251496,        !- Vertex 7 Ycoordinate
    0,                        !- Vertex 7 Zcoordinate
    82.37585028866306,        !- Vertex 8 Xcoordinate
    130.51117793750018,       !- Vertex 8 Ycoordinate
    0,                        !- Vertex 8 Zcoordinate
    85.75263154995628,        !- Vertex 9 Xcoordinate
    126.5828396230936,        !- Vertex 9 Ycoordinate
    0,                        !- Vertex 9 Zcoordinate
    87.41448799846694,        !- Vertex 10 Xcoordinate
    116.02665463322774,       !- Vertex 10 Ycoordinate
    0,                        !- Vertex 10 Zcoordinate
    86.42130297445692,        !- Vertex 11 Xcoordinate
    106.5059594810009,        !- Vertex 11 Ycoordinate
    0,                        !- Vertex 11 Zcoordinate
    84.16742233437253,        !- Vertex 12 Xcoordinate
    102.2140186545439,        !- Vertex 12 Ycoordinate
    0,                        !- Vertex 12 Zcoordinate
    79.63351727463305,        !- Vertex 13 Xcoordinate
    98.50877078669146,        !- Vertex 13 Ycoordinate
    0,                        !- Vertex 13 Zcoordinate
    70.38193054415751,        !- Vertex 14 Xcoordinate
    98.3074109419249,         !- Vertex 14 Ycoordinate
    0,                        !- Vertex 14 Zcoordinate
    67.36129693506518,        !- Vertex 15 Xcoordinate
    100.45678756013513,       !- Vertex 15 Ycoordinate
    0,                        !- Vertex 15 Zcoordinate
    64.09399570594542,        !- Vertex 16 Xcoordinate
    105.38140459405258,       !- Vertex 16 Ycoordinate
    0,                        !- Vertex 16 Zcoordinate
    62.13431701203808,        !- Vertex 17 Xcoordinate
    88.2244211435318,         !- Vertex 17 Ycoordinate
    0,                        !- Vertex 17 Zcoordinate
    58.73998370452318,        !- Vertex 18 Xcoordinate
    70.75518421921879,        !- Vertex 18 Ycoordinate
    0,                        !- Vertex 18 Zcoordinate
    52.13433890312445,        !- Vertex 19 Xcoordinate
    55.43803394399583,        !- Vertex 19 Ycoordinate
    0,                        !- Vertex 19 Zcoordinate
    43.61737599730259,        !- Vertex 20 Xcoordinate
    39.81539847282693,        !- Vertex 20 Ycoordinate
    0,                        !- Vertex 20 Zcoordinate
    19.96852575952653,        !- Vertex 21 Xcoordinate
    12.76619346253574,        !- Vertex 21 Ycoordinate
    0,                        !- Vertex 21 Zcoordinate
    5.48505680821836,         !- Vertex 22 Xcoordinate
    0,                        !- Vertex 22 Ycoordinate
    0,                        !- Vertex 22 Zcoordinate
    0,                        !- Vertex 23 Xcoordinate
    3.182198490481824,        !- Vertex 23 Ycoordinate
    0,                        !- Vertex 23 Zcoordinate
    11.74629984179046,        !- Vertex 24 Xcoordinate
    24.63506024889648,        !- Vertex 24 Ycoordinate
    0,                        !- Vertex 24 Zcoordinate
    6.714302250882611,        !- Vertex 25 Xcoordinate
    26.147781824227422,       !- Vertex 25 Ycoordinate
    0,                        !- Vertex 25 Zcoordinate
    19.74987050244817,        !- Vertex 26 Xcoordinate
    64.5454031988047,         !- Vertex 26 Ycoordinate
    0,                        !- Vertex 26 Zcoordinate
    29.100573969306424,       !- Vertex 27 Xcoordinate
    105.32359098503366,       !- Vertex 27 Ycoordinate
    0,                        !- Vertex 27 Zcoordinate
    33.349419859354384,       !- Vertex 28 Xcoordinate
    169.567673698999,         !- Vertex 28 Ycoordinate
    0,                        !- Vertex 28 Zcoordinate
    38.42067523446167,        !- Vertex 29 Xcoordinate
    170.8261444461532,        !- Vertex 29 Ycoordinate
    0,                        !- Vertex 29 Zcoordinate
    39.0618533535162,         !- Vertex 30 Xcoordinate
    175.69530907273293,       !- Vertex 30 Ycoordinate
    0,                        !- Vertex 30 Zcoordinate
    55.934884526301175,       !- Vertex 31 Xcoordinate
    175.45588695583865,       !- Vertex 31 Ycoordinate
    0;                        !- Vertex 31 Zcoordinate

BUILDINGSURFACE:DETAILED,
    Block Poly_10_Transport Storey 1 Wall 0001,    !- Name
    Wall,                     !- Surface Type
    HSCWZ_Public&Industrial_2015_ExtWall,    !- Construction Name
    Block Poly_10_Transport Storey 1,    !- Zone Name
    ,                         !- Space Name
    Outdoors,                 !- Outside Boundary Condition
    ,                         !- Outside Boundary Condition Object
    SunExposed,               !- Sun Exposure
    WindExposed,              !- Wind Exposure
    autocalculate,            !- View Factor to Ground
    autocalculate,            !- Number of Vertices
    66.81060939311283,        !- Vertex 1 Xcoordinate
    128.8472163812257,        !- Vertex 1 Ycoordinate
    8,                        !- Vertex 1 Zcoordinate
    66.81060939311283,        !- Vertex 2 Xcoordinate
    128.8472163812257,        !- Vertex 2 Ycoordinate
    4,                        !- Vertex 2 Zcoordinate
    63.54513706220314,        !- Vertex 3 Xcoordinate
    154.06094518117607,       !- Vertex 3 Ycoordinate
    4,                        !- Vertex 3 Zcoordinate
    63.54513706220314,        !- Vertex 4 Xcoordinate
    154.06094518117607,       !- Vertex 4 Ycoordinate
    8;                        !- Vertex 4 Zcoordinate

BUILDINGSURFACE:DETAILED,
    Block Poly_10_Transport Storey 1 Wall 0002,    !- Name
    Wall,                     !- Surface Type
    HSCWZ_Public&Industrial_2015_ExtWall,    !- Construction Name
    Block Poly_10_Transport Storey 1,    !- Zone Name
    ,                         !- Space Name
    Outdoors,                 !- Outside Boundary Condition
    ,                         !- Outside Boundary Condition Object
    SunExposed,               !- Sun Exposure
    WindExposed,              !- Wind Exposure
    autocalculate,            !- View Factor to Ground
    autocalculate,            !- Number of Vertices
    63.54513706220314,        !- Vertex 1 Xcoordinate
    154.06094518117607,       !- Vertex 1 Ycoordinate
    8,                        !- Vertex 1 Zcoordinate
    63.54513706220314,        !- Vertex 2 Xcoordinate
    154.06094518117607,       !- Vertex 2 Ycoordinate
    4,                        !- Vertex 2 Zcoordinate
    60.448675296793226,       !- Vertex 3 Xcoordinate
    164.30488186795264,       !- Vertex 3 Ycoordinate
    4,                        !- Vertex 3 Zcoordinate
    60.448675296793226,       !- Vertex 4 Xcoordinate
    164.30488186795264,       !- Vertex 4 Ycoordinate
    8;                        !- Vertex 4 Zcoordinate

BUILDINGSURFACE:DETAILED,
    Block Poly_10_Transport Storey 1 Wall 0003,    !- Name
    Wall,                     !- Surface Type
    HSCWZ_Public&Industrial_2015_ExtWall,    !- Construction Name
    Block Poly_10_Transport Storey 1,    !- Zone Name
    ,                         !- Space Name
    Outdoors,                 !- Outside Boundary Condition
    ,                         !- Outside Boundary Condition Object
    SunExposed,               !- Sun Exposure
    WindExposed,              !- Wind Exposure
    autocalculate,            !- View Factor to Ground
    autocalculate,            !- Number of Vertices
    60.448675296793226,       !- Vertex 1 Xcoordinate
    164.30488186795264,       !- Vertex 1 Ycoordinate
    8,                        !- Vertex 1 Zcoordinate
    60.448675296793226,       !- Vertex 2 Xcoordinate
    164.30488186795264,       !- Vertex 2 Ycoordinate
    4,                        !- Vertex 2 Zcoordinate
    55.934884526301175,       !- Vertex 3 Xcoordinate
    175.45588695583865,       !- Vertex 3 Ycoordinate
    4,                        !- Vertex 3 Zcoordinate
    55.934884526301175,       !- Vertex 4 Xcoordinate
    175.45588695583865,       !- Vertex 4 Ycoordinate
    8;                        !- Vertex 4 Zcoordinate

BUILDINGSURFACE:DETAILED,
    Block Poly_10_Transport Storey 1 Wall 0004,    !- Name
    Wall,                     !- Surface Type
    HSCWZ_Public&Industrial_2015_ExtWall,    !- Construction Name
    Block Poly_10_Transport Storey 1,    !- Zone Name
    ,                         !- Space Name
    Outdoors,                 !- Outside Boundary Condition
    ,                         !- Outside Boundary Condition Object
    SunExposed,               !- Sun Exposure
    WindExposed,              !- Wind Exposure
    autocalculate,            !- View Factor to Ground
    autocalculate,            !- Number of Vertices
    55.934884526301175,       !- Vertex 1 Xcoordinate
    175.45588695583865,       !- Vertex 1 Ycoordinate
    8,                        !- Vertex 1 Zcoordinate
    55.934884526301175,       !- Vertex 2 Xcoordinate
    175.45588695583865,       !- Vertex 2 Ycoordinate
    4,                        !- Vertex 2 Zcoordinate
    39.0618533535162,         !- Vertex 3 Xcoordinate
    175.69530907273293,       !- Vertex 3 Ycoordinate
    4,                        !- Vertex 3 Zcoordinate
    39.0618533535162,         !- Vertex 4 Xcoordinate
    175.69530907273293,       !- Vertex 4 Ycoordinate
    8;                        !- Vertex 4 Zcoordinate

BUILDINGSURFACE:DETAILED,
    Block Poly_10_Transport Storey 1 Wall 0005,    !- Name
    Wall,                     !- Surface Type
    HSCWZ_Public&Industrial_2015_ExtWall,    !- Construction Name
    Block Poly_10_Transport Storey 1,    !- Zone Name
    ,                         !- Space Name
    Outdoors,                 !- Outside Boundary Condition
    ,                         !- Outside Boundary Condition Object
    SunExposed,               !- Sun Exposure
    WindExposed,              !- Wind Exposure
    autocalculate,            !- View Factor to Ground
    autocalculate,            !- Number of Vertices
    39.0618533535162,         !- Vertex 1 Xcoordinate
    175.69530907273293,       !- Vertex 1 Ycoordinate
    8,                        !- Vertex 1 Zcoordinate
    39.0618533535162,         !- Vertex 2 Xcoordinate
    175.69530907273293,       !- Vertex 2 Ycoordinate
    4,                        !- Vertex 2 Zcoordinate
    38.42067523446167,        !- Vertex 3 Xcoordinate
    170.8261444461532,        !- Vertex 3 Ycoordinate
    4,                        !- Vertex 3 Zcoordinate
    38.42067523446167,        !- Vertex 4 Xcoordinate
    170.8261444461532,        !- Vertex 4 Ycoordinate
    8;                        !- Vertex 4 Zcoordinate

BUILDINGSURFACE:DETAILED,
    Block Poly_10_Transport Storey 1 Wall 0006,    !- Name
    Wall,                     !- Surface Type
    HSCWZ_Public&Industrial_2015_ExtWall,    !- Construction Name
    Block Poly_10_Transport Storey 1,    !- Zone Name
    ,                         !- Space Name
    Outdoors,                 !- Outside Boundary Condition
    ,                         !- Outside Boundary Condition Object
    SunExposed,               !- Sun Exposure
    WindExposed,              !- Wind Exposure
    autocalculate,            !- View Factor to Ground
    autocalculate,            !- Number of Vertices
    38.42067523446167,        !- Vertex 1 Xcoordinate
    170.8261444461532,        !- Vertex 1 Ycoordinate
    8,                        !- Vertex 1 Zcoordinate
    38.42067523446167,        !- Vertex 2 Xcoordinate
    170.8261444461532,        !- Vertex 2 Ycoordinate
    4,                        !- Vertex 2 Zcoordinate
    33.349419859354384,       !- Vertex 3 Xcoordinate
    169.567673698999,         !- Vertex 3 Ycoordinate
    4,                        !- Vertex 3 Zcoordinate
    33.349419859354384,       !- Vertex 4 Xcoordinate
    169.567673698999,         !- Vertex 4 Ycoordinate
    8;                        !- Vertex 4 Zcoordinate

BUILDINGSURFACE:DETAILED,
    Block Poly_10_Transport Storey 1 Wall 0007,    !- Name
    Wall,                     !- Surface Type
    HSCWZ_Public&Industrial_2015_ExtWall,    !- Construction Name
    Block Poly_10_Transport Storey 1,    !- Zone Name
    ,                         !- Space Name
    Outdoors,                 !- Outside Boundary Condition
    ,                         !- Outside Boundary Condition Object
    SunExposed,               !- Sun Exposure
    WindExposed,              !- Wind Exposure
    autocalculate,            !- View Factor to Ground
    autocalculate,            !- Number of Vertices
    33.349419859354384,       !- Vertex 1 Xcoordinate
    169.567673698999,         !- Vertex 1 Ycoordinate
    8,                        !- Vertex 1 Zcoordinate
    33.349419859354384,       !- Vertex 2 Xcoordinate
    169.567673698999,         !- Vertex 2 Ycoordinate
    4,                        !- Vertex 2 Zcoordinate
    29.100573969306424,       !- Vertex 3 Xcoordinate
    105.32359098503366,       !- Vertex 3 Ycoordinate
    4,                        !- Vertex 3 Zcoordinate
    29.100573969306424,       !- Vertex 4 Xcoordinate
    105.32359098503366,       !- Vertex 4 Ycoordinate
    8;                        !- Vertex 4 Zcoordinate

BUILDINGSURFACE:DETAILED,
    Block Poly_10_Transport Storey 1 Wall 0008,    !- Name
    Wall,                     !- Surface Type
    HSCWZ_Public&Industrial_2015_ExtWall,    !- Construction Name
    Block Poly_10_Transport Storey 1,    !- Zone Name
    ,                         !- Space Name
    Outdoors,                 !- Outside Boundary Condition
    ,                         !- Outside Boundary Condition Object
    SunExposed,               !- Sun Exposure
    WindExposed,              !- Wind Exposure
    autocalculate,            !- View Factor to Ground
    autocalculate,            !- Number of Vertices
    29.100573969306424,       !- Vertex 1 Xcoordinate
    105.32359098503366,       !- Vertex 1 Ycoordinate
    8,                        !- Vertex 1 Zcoordinate
    29.100573969306424,       !- Vertex 2 Xcoordinate
    105.32359098503366,       !- Vertex 2 Ycoordinate
    4,                        !- Vertex 2 Zcoordinate
    19.74987050244817,        !- Vertex 3 Xcoordinate
    64.5454031988047,         !- Vertex 3 Ycoordinate
    4,                        !- Vertex 3 Zcoordinate
    19.74987050244817,        !- Vertex 4 Xcoordinate
    64.5454031988047,         !- Vertex 4 Ycoordinate
    8;                        !- Vertex 4 Zcoordinate

BUILDINGSURFACE:DETAILED,
    Block Poly_10_Transport Storey 1 Wall 0009,    !- Name
    Wall,                     !- Surface Type
    HSCWZ_Public&Industrial_2015_ExtWall,    !- Construction Name
    Block Poly_10_Transport Storey 1,    !- Zone Name
    ,                         !- Space Name
    Outdoors,                 !- Outside Boundary Condition
    ,                         !- Outside Boundary Condition Object
    SunExposed,               !- Sun Exposure
    WindExposed,              !- Wind Exposure
    autocalculate,            !- View Factor to Ground
    autocalculate,            !- Number of Vertices
    19.74987050244817,        !- Vertex 1 Xcoordinate
    64.5454031988047,         !- Vertex 1 Ycoordinate
    8,                        !- Vertex 1 Zcoordinate
    19.74987050244817,        !- Vertex 2 Xcoordinate
    64.5454031988047,         !- Vertex 2 Ycoordinate
    4,                        !- Vertex 2 Zcoordinate
    6.714302250882611,        !- Vertex 3 Xcoordinate
    26.147781824227422,       !- Vertex 3 Ycoordinate
    4,                        !- Vertex 3 Zcoordinate
    6.714302250882611,        !- Vertex 4 Xcoordinate
    26.147781824227422,       !- Vertex 4 Ycoordinate
    8;                        !- Vertex 4 Zcoordinate

BUILDINGSURFACE:DETAILED,
    Block Poly_10_Transport Storey 1 Wall 0010,    !- Name
    Wall,                     !- Surface Type
    HSCWZ_Public&Industrial_2015_ExtWall,    !- Construction Name
    Block Poly_10_Transport Storey 1,    !- Zone Name
    ,                         !- Space Name
    Outdoors,                 !- Outside Boundary Condition
    ,                         !- Outside Boundary Condition Object
    SunExposed,               !- Sun Exposure
    WindExposed,              !- Wind Exposure
    autocalculate,            !- View Factor to Ground
    autocalculate,            !- Number of Vertices
    6.714302250882611,        !- Vertex 1 Xcoordinate
    26.147781824227422,       !- Vertex 1 Ycoordinate
    8,                        !- Vertex 1 Zcoordinate
    6.714302250882611,        !- Vertex 2 Xcoordinate
    26.147781824227422,       !- Vertex 2 Ycoordinate
    4,                        !- Vertex 2 Zcoordinate
    11.74629984179046,        !- Vertex 3 Xcoordinate
    24.63506024889648,        !- Vertex 3 Ycoordinate
    4,                        !- Vertex 3 Zcoordinate
    11.74629984179046,        !- Vertex 4 Xcoordinate
    24.63506024889648,        !- Vertex 4 Ycoordinate
    8;                        !- Vertex 4 Zcoordinate

BUILDINGSURFACE:DETAILED,
    Block Poly_10_Transport Storey 1 Wall 0011,    !- Name
    Wall,                     !- Surface Type
    HSCWZ_Public&Industrial_2015_ExtWall,    !- Construction Name
    Block Poly_10_Transport Storey 1,    !- Zone Name
    ,                         !- Space Name
    Outdoors,                 !- Outside Boundary Condition
    ,                         !- Outside Boundary Condition Object
    SunExposed,               !- Sun Exposure
    WindExposed,              !- Wind Exposure
    autocalculate,            !- View Factor to Ground
    autocalculate,            !- Number of Vertices
    11.74629984179046,        !- Vertex 1 Xcoordinate
    24.63506024889648,        !- Vertex 1 Ycoordinate
    8,                        !- Vertex 1 Zcoordinate
    11.74629984179046,        !- Vertex 2 Xcoordinate
    24.63506024889648,        !- Vertex 2 Ycoordinate
    4,                        !- Vertex 2 Zcoordinate
    0,                        !- Vertex 3 Xcoordinate
    3.182198490481824,        !- Vertex 3 Ycoordinate
    4,                        !- Vertex 3 Zcoordinate
    0,                        !- Vertex 4 Xcoordinate
    3.182198490481824,        !- Vertex 4 Ycoordinate
    8;                        !- Vertex 4 Zcoordinate

BUILDINGSURFACE:DETAILED,
    Block Poly_10_Transport Storey 1 Wall 0012,    !- Name
    Wall,                     !- Surface Type
    HSCWZ_Public&Industrial_2015_ExtWall,    !- Construction Name
    Block Poly_10_Transport Storey 1,    !- Zone Name
    ,                         !- Space Name
    Outdoors,                 !- Outside Boundary Condition
    ,                         !- Outside Boundary Condition Object
    SunExposed,               !- Sun Exposure
    WindExposed,              !- Wind Exposure
    autocalculate,            !- View Factor to Ground
    autocalculate,            !- Number of Vertices
    0,                        !- Vertex 1 Xcoordinate
    3.182198490481824,        !- Vertex 1 Ycoordinate
    8,                        !- Vertex 1 Zcoordinate
    0,                        !- Vertex 2 Xcoordinate
    3.182198490481824,        !- Vertex 2 Ycoordinate
    4,                        !- Vertex 2 Zcoordinate
    5.48505680821836,         !- Vertex 3 Xcoordinate
    0,                        !- Vertex 3 Ycoordinate
    4,                        !- Vertex 3 Zcoordinate
    5.48505680821836,         !- Vertex 4 Xcoordinate
    0,                        !- Vertex 4 Ycoordinate
    8;                        !- Vertex 4 Zcoordinate

BUILDINGSURFACE:DETAILED,
    Block Poly_10_Transport Storey 1 Wall 0013,    !- Name
    Wall,                     !- Surface Type
    HSCWZ_Public&Industrial_2015_ExtWall,    !- Construction Name
    Block Poly_10_Transport Storey 1,    !- Zone Name
    ,                         !- Space Name
    Outdoors,                 !- Outside Boundary Condition
    ,                         !- Outside Boundary Condition Object
    SunExposed,               !- Sun Exposure
    WindExposed,              !- Wind Exposure
    autocalculate,            !- View Factor to Ground
    autocalculate,            !- Number of Vertices
    5.48505680821836,         !- Vertex 1 Xcoordinate
    0,                        !- Vertex 1 Ycoordinate
    8,                        !- Vertex 1 Zcoordinate
    5.48505680821836,         !- Vertex 2 Xcoordinate
    0,                        !- Vertex 2 Ycoordinate
    4,                        !- Vertex 2 Zcoordinate
    19.96852575952653,        !- Vertex 3 Xcoordinate
    12.76619346253574,        !- Vertex 3 Ycoordinate
    4,                        !- Vertex 3 Zcoordinate
    19.96852575952653,        !- Vertex 4 Xcoordinate
    12.76619346253574,        !- Vertex 4 Ycoordinate
    8;                        !- Vertex 4 Zcoordinate

BUILDINGSURFACE:DETAILED,
    Block Poly_10_Transport Storey 1 Wall 0014,    !- Name
    Wall,                     !- Surface Type
    HSCWZ_Public&Industrial_2015_ExtWall,    !- Construction Name
    Block Poly_10_Transport Storey 1,    !- Zone Name
    ,                         !- Space Name
    Outdoors,                 !- Outside Boundary Condition
    ,                         !- Outside Boundary Condition Object
    SunExposed,               !- Sun Exposure
    WindExposed,              !- Wind Exposure
    autocalculate,            !- View Factor to Ground
    autocalculate,            !- Number of Vertices
    19.96852575952653,        !- Vertex 1 Xcoordinate
    12.76619346253574,        !- Vertex 1 Ycoordinate
    8,                        !- Vertex 1 Zcoordinate
    19.96852575952653,        !- Vertex 2 Xcoordinate
    12.76619346253574,        !- Vertex 2 Ycoordinate
    4,                        !- Vertex 2 Zcoordinate
    43.61737599730259,        !- Vertex 3 Xcoordinate
    39.81539847282693,        !- Vertex 3 Ycoordinate
    4,                        !- Vertex 3 Zcoordinate
    43.61737599730259,        !- Vertex 4 Xcoordinate
    39.81539847282693,        !- Vertex 4 Ycoordinate
    8;                        !- Vertex 4 Zcoordinate

BUILDINGSURFACE:DETAILED,
    Block Poly_10_Transport Storey 1 Wall 0015,    !- Name
    Wall,                     !- Surface Type
    HSCWZ_Public&Industrial_2015_ExtWall,    !- Construction Name
    Block Poly_10_Transport Storey 1,    !- Zone Name
    ,                         !- Space Name
    Outdoors,                 !- Outside Boundary Condition
    ,                         !- Outside Boundary Condition Object
    SunExposed,               !- Sun Exposure
    WindExposed,              !- Wind Exposure
    autocalculate,            !- View Factor to Ground
    autocalculate,            !- Number of Vertices
    43.61737599730259,        !- Vertex 1 Xcoordinate
    39.81539847282693,        !- Vertex 1 Ycoordinate
    8,                        !- Vertex 1 Zcoordinate
    43.61737599730259,        !- Vertex 2 Xcoordinate
    39.81539847282693,        !- Vertex 2 Ycoordinate
    4,                        !- Vertex 2 Zcoordinate
    52.13433890312445,        !- Vertex 3 Xcoordinate
    55.43803394399583,        !- Vertex 3 Ycoordinate
    4,                        !- Vertex 3 Zcoordinate
    52.13433890312445,        !- Vertex 4 Xcoordinate
    55.43803394399583,        !- Vertex 4 Ycoordinate
    8;                        !- Vertex 4 Zcoordinate

BUILDINGSURFACE:DETAILED,
    Block Poly_10_Transport Storey 1 Wall 0016,    !- Name
    Wall,                     !- Surface Type
    HSCWZ_Public&Industrial_2015_ExtWall,    !- Construction Name
    Block Poly_10_Transport Storey 1,    !- Zone Name
    ,                         !- Space Name
    Outdoors,                 !- Outside Boundary Condition
    ,                         !- Outside Boundary Condition Object
    SunExposed,               !- Sun Exposure
    WindExposed,              !- Wind Exposure
    autocalculate,            !- View Factor to Ground
    autocalculate,            !- Number of Vertices
    52.13433890312445,        !- Vertex 1 Xcoordinate
    55.43803394399583,        !- Vertex 1 Ycoordinate
    8,                        !- Vertex 1 Zcoordinate
    52.13433890312445,        !- Vertex 2 Xcoordinate
    55.43803394399583,        !- Vertex 2 Ycoordinate
    4,                        !- Vertex 2 Zcoordinate
    58.73998370452318,        !- Vertex 3 Xcoordinate
    70.75518421921879,        !- Vertex 3 Ycoordinate
    4,                        !- Vertex 3 Zcoordinate
    58.73998370452318,        !- Vertex 4 Xcoordinate
    70.75518421921879,        !- Vertex 4 Ycoordinate
    8;                        !- Vertex 4 Zcoordinate

BUILDINGSURFACE:DETAILED,
    Block Poly_10_Transport Storey 1 Wall 0017,    !- Name
    Wall,                     !- Surface Type
    HSCWZ_Public&Industrial_2015_ExtWall,    !- Construction Name
    Block Poly_10_Transport Storey 1,    !- Zone Name
    ,                         !- Space Name
    Outdoors,                 !- Outside Boundary Condition
    ,                         !- Outside Boundary Condition Object
    SunExposed,               !- Sun Exposure
    WindExposed,              !- Wind Exposure
    autocalculate,            !- View Factor to Ground
    autocalculate,            !- Number of Vertices
    58.73998370452318,        !- Vertex 1 Xcoordinate
    70.75518421921879,        !- Vertex 1 Ycoordinate
    8,                        !- Vertex 1 Zcoordinate
    58.73998370452318,        !- Vertex 2 Xcoordinate
    70.75518421921879,        !- Vertex 2 Ycoordinate
    4,                        !- Vertex 2 Zcoordinate
    62.13431701203808,        !- Vertex 3 Xcoordinate
    88.2244211435318,         !- Vertex 3 Ycoordinate
    4,                        !- Vertex 3 Zcoordinate
    62.13431701203808,        !- Vertex 4 Xcoordinate
    88.2244211435318,         !- Vertex 4 Ycoordinate
    8;                        !- Vertex 4 Zcoordinate

BUILDINGSURFACE:DETAILED,
    Block Poly_10_Transport Storey 1 Wall 0018,    !- Name
    Wall,                     !- Surface Type
    HSCWZ_Public&Industrial_2015_ExtWall,    !- Construction Name
    Block Poly_10_Transport Storey 1,    !- Zone Name
    ,                         !- Space Name
    Outdoors,                 !- Outside Boundary Condition
    ,                         !- Outside Boundary Condition Object
    SunExposed,               !- Sun Exposure
    WindExposed,              !- Wind Exposure
    autocalculate,            !- View Factor to Ground
    autocalculate,            !- Number of Vertices
    62.13431701203808,        !- Vertex 1 Xcoordinate
    88.2244211435318,         !- Vertex 1 Ycoordinate
    8,                        !- Vertex 1 Zcoordinate
    62.13431701203808,        !- Vertex 2 Xcoordinate
    88.2244211435318,         !- Vertex 2 Ycoordinate
    4,                        !- Vertex 2 Zcoordinate
    64.09399570594542,        !- Vertex 3 Xcoordinate
    105.38140459405258,       !- Vertex 3 Ycoordinate
    4,                        !- Vertex 3 Zcoordinate
    64.09399570594542,        !- Vertex 4 Xcoordinate
    105.38140459405258,       !- Vertex 4 Ycoordinate
    8;                        !- Vertex 4 Zcoordinate

BUILDINGSURFACE:DETAILED,
    Block Poly_10_Transport Storey 1 Wall 0019,    !- Name
    Wall,                     !- Surface Type
    HSCWZ_Public&Industrial_2015_ExtWall,    !- Construction Name
    Block Poly_10_Transport Storey 1,    !- Zone Name
    ,                         !- Space Name
    Outdoors,                 !- Outside Boundary Condition
    ,                         !- Outside Boundary Condition Object
    SunExposed,               !- Sun Exposure
    WindExposed,              !- Wind Exposure
    autocalculate,            !- View Factor to Ground
    autocalculate,            !- Number of Vertices
    64.09399570594542,        !- Vertex 1 Xcoordinate
    105.38140459405258,       !- Vertex 1 Ycoordinate
    8,                        !- Vertex 1 Zcoordinate
    64.09399570594542,        !- Vertex 2 Xcoordinate
    105.38140459405258,       !- Vertex 2 Ycoordinate
    4,                        !- Vertex 2 Zcoordinate
    67.36129693506518,        !- Vertex 3 Xcoordinate
    100.45678756013513,       !- Vertex 3 Ycoordinate
    4,                        !- Vertex 3 Zcoordinate
    67.36129693506518,        !- Vertex 4 Xcoordinate
    100.45678756013513,       !- Vertex 4 Ycoordinate
    8;                        !- Vertex 4 Zcoordinate

BUILDINGSURFACE:DETAILED,
    Block Poly_10_Transport Storey 1 Wall 0020,    !- Name
    Wall,                     !- Surface Type
    HSCWZ_Public&Industrial_2015_ExtWall,    !- Construction Name
    Block Poly_10_Transport Storey 1,    !- Zone Name
    ,                         !- Space Name
    Outdoors,                 !- Outside Boundary Condition
    ,                         !- Outside Boundary Condition Object
    SunExposed,               !- Sun Exposure
    WindExposed,              !- Wind Exposure
    autocalculate,            !- View Factor to Ground
    autocalculate,            !- Number of Vertices
    67.36129693506518,        !- Vertex 1 Xcoordinate
    100.45678756013513,       !- Vertex 1 Ycoordinate
    8,                        !- Vertex 1 Zcoordinate
    67.36129693506518,        !- Vertex 2 Xcoordinate
    100.45678756013513,       !- Vertex 2 Ycoordinate
    4,                        !- Vertex 2 Zcoordinate
    70.38193054415751,        !- Vertex 3 Xcoordinate
    98.3074109419249,         !- Vertex 3 Ycoordinate
    4,                        !- Vertex 3 Zcoordinate
    70.38193054415751,        !- Vertex 4 Xcoordinate
    98.3074109419249,         !- Vertex 4 Ycoordinate
    8;                        !- Vertex 4 Zcoordinate

BUILDINGSURFACE:DETAILED,
    Block Poly_10_Transport Storey 1 Wall 0021,    !- Name
    Wall,                     !- Surface Type
    HSCWZ_Public&Industrial_2015_ExtWall,    !- Construction Name
    Block Poly_10_Transport Storey 1,    !- Zone Name
    ,                         !- Space Name
    Outdoors,                 !- Outside Boundary Condition
    ,                         !- Outside Boundary Condition Object
    SunExposed,               !- Sun Exposure
    WindExposed,              !- Wind Exposure
    autocalculate,            !- View Factor to Ground
    autocalculate,            !- Number of Vertices
    70.38193054415751,        !- Vertex 1 Xcoordinate
    98.3074109419249,         !- Vertex 1 Ycoordinate
    8,                        !- Vertex 1 Zcoordinate
    70.38193054415751,        !- Vertex 2 Xcoordinate
    98.3074109419249,         !- Vertex 2 Ycoordinate
    4,                        !- Vertex 2 Zcoordinate
    79.63351727463305,        !- Vertex 3 Xcoordinate
    98.50877078669146,        !- Vertex 3 Ycoordinate
    4,                        !- Vertex 3 Zcoordinate
    79.63351727463305,        !- Vertex 4 Xcoordinate
    98.50877078669146,        !- Vertex 4 Ycoordinate
    8;                        !- Vertex 4 Zcoordinate

BUILDINGSURFACE:DETAILED,
    Block Poly_10_Transport Storey 1 Wall 0022,    !- Name
    Wall,                     !- Surface Type
    HSCWZ_Public&Industrial_2015_ExtWall,    !- Construction Name
    Block Poly_10_Transport Storey 1,    !- Zone Name
    ,                         !- Space Name
    Outdoors,                 !- Outside Boundary Condition
    ,                         !- Outside Boundary Condition Object
    SunExposed,               !- Sun Exposure
    WindExposed,              !- Wind Exposure
    autocalculate,            !- View Factor to Ground
    autocalculate,            !- Number of Vertices
    79.63351727463305,        !- Vertex 1 Xcoordinate
    98.50877078669146,        !- Vertex 1 Ycoordinate
    8,                        !- Vertex 1 Zcoordinate
    79.63351727463305,        !- Vertex 2 Xcoordinate
    98.50877078669146,        !- Vertex 2 Ycoordinate
    4,                        !- Vertex 2 Zcoordinate
    84.16742233437253,        !- Vertex 3 Xcoordinate
    102.2140186545439,        !- Vertex 3 Ycoordinate
    4,                        !- Vertex 3 Zcoordinate
    84.16742233437253,        !- Vertex 4 Xcoordinate
    102.2140186545439,        !- Vertex 4 Ycoordinate
    8;                        !- Vertex 4 Zcoordinate

BUILDINGSURFACE:DETAILED,
    Block Poly_10_Transport Storey 1 Wall 0023,    !- Name
    Wall,                     !- Surface Type
    HSCWZ_Public&Industrial_2015_ExtWall,    !- Construction Name
    Block Poly_10_Transport Storey 1,    !- Zone Name
    ,                         !- Space Name
    Outdoors,                 !- Outside Boundary Condition
    ,                         !- Outside Boundary Condition Object
    SunExposed,               !- Sun Exposure
    WindExposed,              !- Wind Exposure
    autocalculate,            !- View Factor to Ground
    autocalculate,            !- Number of Vertices
    84.16742233437253,        !- Vertex 1 Xcoordinate
    102.2140186545439,        !- Vertex 1 Ycoordinate
    8,                        !- Vertex 1 Zcoordinate
    84.16742233437253,        !- Vertex 2 Xcoordinate
    102.2140186545439,        !- Vertex 2 Ycoordinate
    4,                        !- Vertex 2 Zcoordinate
    86.42130297445692,        !- Vertex 3 Xcoordinate
    106.5059594810009,        !- Vertex 3 Ycoordinate
    4,                        !- Vertex 3 Zcoordinate
    86.42130297445692,        !- Vertex 4 Xcoordinate
    106.5059594810009,        !- Vertex 4 Ycoordinate
    8;                        !- Vertex 4 Zcoordinate

BUILDINGSURFACE:DETAILED,
    Block Poly_10_Transport Storey 1 Wall 0024,    !- Name
    Wall,                     !- Surface Type
    HSCWZ_Public&Industrial_2015_ExtWall,    !- Construction Name
    Block Poly_10_Transport Storey 1,    !- Zone Name
    ,                         !- Space Name
    Outdoors,                 !- Outside Boundary Condition
    ,                         !- Outside Boundary Condition Object
    SunExposed,               !- Sun Exposure
    WindExposed,              !- Wind Exposure
    autocalculate,            !- View Factor to Ground
    autocalculate,            !- Number of Vertices
    86.42130297445692,        !- Vertex 1 Xcoordinate
    106.5059594810009,        !- Vertex 1 Ycoordinate
    8,                        !- Vertex 1 Zcoordinate
    86.42130297445692,        !- Vertex 2 Xcoordinate
    106.5059594810009,        !- Vertex 2 Ycoordinate
    4,                        !- Vertex 2 Zcoordinate
    87.41448799846694,        !- Vertex 3 Xcoordinate
    116.02665463322774,       !- Vertex 3 Ycoordinate
    4,                        !- Vertex 3 Zcoordinate
    87.41448799846694,        !- Vertex 4 Xcoordinate
    116.02665463322774,       !- Vertex 4 Ycoordinate
    8;                        !- Vertex 4 Zcoordinate

BUILDINGSURFACE:DETAILED,
    Block Poly_10_Transport Storey 1 Wall 0025,    !- Name
    Wall,                     !- Surface Type
    HSCWZ_Public&Industrial_2015_ExtWall,    !- Construction Name
    Block Poly_10_Transport Storey 1,    !- Zone Name
    ,                         !- Space Name
    Outdoors,                 !- Outside Boundary Condition
    ,                         !- Outside Boundary Condition Object
    SunExposed,               !- Sun Exposure
    WindExposed,              !- Wind Exposure
    autocalculate,            !- View Factor to Ground
    autocalculate,            !- Number of Vertices
    87.41448799846694,        !- Vertex 1 Xcoordinate
    116.02665463322774,       !- Vertex 1 Ycoordinate
    8,                        !- Vertex 1 Zcoordinate
    87.41448799846694,        !- Vertex 2 Xcoordinate
    116.02665463322774,       !- Vertex 2 Ycoordinate
    4,                        !- Vertex 2 Zcoordinate
    85.75263154995628,        !- Vertex 3 Xcoordinate
    126.5828396230936,        !- Vertex 3 Ycoordinate
    4,                        !- Vertex 3 Zcoordinate
    85.75263154995628,        !- Vertex 4 Xcoordinate
    126.5828396230936,        !- Vertex 4 Ycoordinate
    8;                        !- Vertex 4 Zcoordinate

BUILDINGSURFACE:DETAILED,
    Block Poly_10_Transport Storey 1 Wall 0026,    !- Name
    Wall,                     !- Surface Type
    HSCWZ_Public&Industrial_2015_ExtWall,    !- Construction Name
    Block Poly_10_Transport Storey 1,    !- Zone Name
    ,                         !- Space Name
    Outdoors,                 !- Outside Boundary Condition
    ,                         !- Outside Boundary Condition Object
    SunExposed,               !- Sun Exposure
    WindExposed,              !- Wind Exposure
    autocalculate,            !- View Factor to Ground
    autocalculate,            !- Number of Vertices
    85.75263154995628,        !- Vertex 1 Xcoordinate
    126.5828396230936,        !- Vertex 1 Ycoordinate
    8,                        !- Vertex 1 Zcoordinate
    85.75263154995628,        !- Vertex 2 Xcoordinate
    126.5828396230936,        !- Vertex 2 Ycoordinate
    4,                        !- Vertex 2 Zcoordinate
    82.37585028866306,        !- Vertex 3 Xcoordinate
    130.51117793750018,       !- Vertex 3 Ycoordinate
    4,                        !- Vertex 3 Zcoordinate
    82.37585028866306,        !- Vertex 4 Xcoordinate
    130.51117793750018,       !- Vertex 4 Ycoordinate
    8;                        !- Vertex 4 Zcoordinate

BUILDINGSURFACE:DETAILED,
    Block Poly_10_Transport Storey 1 Wall 0027,    !- Name
    Wall,                     !- Surface Type
    HSCWZ_Public&Industrial_2015_ExtWall,    !- Construction Name
    Block Poly_10_Transport Storey 1,    !- Zone Name
    ,                         !- Space Name
    Outdoors,                 !- Outside Boundary Condition
    ,                         !- Outside Boundary Condition Object
    SunExposed,               !- Sun Exposure
    WindExposed,              !- Wind Exposure
    autocalculate,            !- View Factor to Ground
    autocalculate,            !- Number of Vertices
    82.37585028866306,        !- Vertex 1 Xcoordinate
    130.51117793750018,       !- Vertex 1 Ycoordinate
    8,                        !- Vertex 1 Zcoordinate
    82.37585028866306,        !- Vertex 2 Xcoordinate
    130.51117793750018,       !- Vertex 2 Ycoordinate
    4,                        !- Vertex 2 Zcoordinate
    79.72867442009738,        !- Vertex 3 Xcoordinate
    132.1009056251496,        !- Vertex 3 Ycoordinate
    4,                        !- Vertex 3 Zcoordinate
    79.72867442009738,        !- Vertex 4 Xcoordinate
    132.1009056251496,        !- Vertex 4 Ycoordinate
    8;                        !- Vertex 4 Zcoordinate

BUILDINGSURFACE:DETAILED,
    Block Poly_10_Transport Storey 1 Wall 0028,    !- Name
    Wall,                     !- Surface Type
    HSCWZ_Public&Industrial_2015_ExtWall,    !- Construction Name
    Block Poly_10_Transport Storey 1,    !- Zone Name
    ,                         !- Space Name
    Outdoors,                 !- Outside Boundary Condition
    ,                         !- Outside Boundary Condition Object
    SunExposed,               !- Sun Exposure
    WindExposed,              !- Wind Exposure
    autocalculate,            !- View Factor to Ground
    autocalculate,            !- Number of Vertices
    79.72867442009738,        !- Vertex 1 Xcoordinate
    132.1009056251496,        !- Vertex 1 Ycoordinate
    8,                        !- Vertex 1 Zcoordinate
    79.72867442009738,        !- Vertex 2 Xcoordinate
    132.1009056251496,        !- Vertex 2 Ycoordinate
    4,                        !- Vertex 2 Zcoordinate
    72.94464333995711,        !- Vertex 3 Xcoordinate
    131.0884525887668,        !- Vertex 3 Ycoordinate
    4,                        !- Vertex 3 Zcoordinate
    72.94464333995711,        !- Vertex 4 Xcoordinate
    131.0884525887668,        !- Vertex 4 Ycoordinate
    8;                        !- Vertex 4 Zcoordinate

BUILDINGSURFACE:DETAILED,
    Block Poly_10_Transport Storey 1 Wall 0029,    !- Name
    Wall,                     !- Surface Type
    HSCWZ_Public&Industrial_2015_ExtWall,    !- Construction Name
    Block Poly_10_Transport Storey 1,    !- Zone Name
    ,                         !- Space Name
    Outdoors,                 !- Outside Boundary Condition
    ,                         !- Outside Boundary Condition Object
    SunExposed,               !- Sun Exposure
    WindExposed,              !- Wind Exposure
    autocalculate,            !- View Factor to Ground
    autocalculate,            !- Number of Vertices
    72.94464333995711,        !- Vertex 1 Xcoordinate
    131.0884525887668,        !- Vertex 1 Ycoordinate
    8,                        !- Vertex 1 Zcoordinate
    72.94464333995711,        !- Vertex 2 Xcoordinate
    131.0884525887668,        !- Vertex 2 Ycoordinate
    4,                        !- Vertex 2 Zcoordinate
    68.41074579709675,        !- Vertex 3 Xcoordinate
    127.38320972304793,       !- Vertex 3 Ycoordinate
    4,                        !- Vertex 3 Zcoordinate
    68.41074579709675,        !- Vertex 4 Xcoordinate
    127.38320972304793,       !- Vertex 4 Ycoordinate
    8;                        !- Vertex 4 Zcoordinate

BUILDINGSURFACE:DETAILED,
    Block Poly_10_Transport Storey 1 Wall 0030,    !- Name
    Wall,                     !- Surface Type
    HSCWZ_Public&Industrial_2015_ExtWall,    !- Construction Name
    Block Poly_10_Transport Storey 1,    !- Zone Name
    ,                         !- Space Name
    Outdoors,                 !- Outside Boundary Condition
    ,                         !- Outside Boundary Condition Object
    SunExposed,               !- Sun Exposure
    WindExposed,              !- Wind Exposure
    autocalculate,            !- View Factor to Ground
    autocalculate,            !- Number of Vertices
    68.41074579709675,        !- Vertex 1 Xcoordinate
    127.38320972304793,       !- Vertex 1 Ycoordinate
    8,                        !- Vertex 1 Zcoordinate
    68.41074579709675,        !- Vertex 2 Xcoordinate
    127.38320972304793,       !- Vertex 2 Ycoordinate
    4,                        !- Vertex 2 Zcoordinate
    66.26634374901187,        !- Vertex 3 Xcoordinate
    124.0875455737114,        !- Vertex 3 Ycoordinate
    4,                        !- Vertex 3 Zcoordinate
    66.26634374901187,        !- Vertex 4 Xcoordinate
    124.0875455737114,        !- Vertex 4 Ycoordinate
    8;                        !- Vertex 4 Zcoordinate

BUILDINGSURFACE:DETAILED,
    Block Poly_10_Transport Storey 1 Wall 0031,    !- Name
    Wall,                     !- Surface Type
    HSCWZ_Public&Industrial_2015_ExtWall,    !- Construction Name
    Block Poly_10_Transport Storey 1,    !- Zone Name
    ,                         !- Space Name
    Outdoors,                 !- Outside Boundary Condition
    ,                         !- Outside Boundary Condition Object
    SunExposed,               !- Sun Exposure
    WindExposed,              !- Wind Exposure
    autocalculate,            !- View Factor to Ground
    autocalculate,            !- Number of Vertices
    66.26634374901187,        !- Vertex 1 Xcoordinate
    124.0875455737114,        !- Vertex 1 Ycoordinate
    8,                        !- Vertex 1 Zcoordinate
    66.26634374901187,        !- Vertex 2 Xcoordinate
    124.0875455737114,        !- Vertex 2 Ycoordinate
    4,                        !- Vertex 2 Zcoordinate
    66.81060939311283,        !- Vertex 3 Xcoordinate
    128.8472163812257,        !- Vertex 3 Ycoordinate
    4,                        !- Vertex 3 Zcoordinate
    66.81060939311283,        !- Vertex 4 Xcoordinate
    128.8472163812257,        !- Vertex 4 Ycoordinate
    8;                        !- Vertex 4 Zcoordinate

BUILDINGSURFACE:DETAILED,
    Block Poly_10_Transport Storey 2 Wall 0001,    !- Name
    Wall,                     !- Surface Type
    HSCWZ_Public&Industrial_2015_ExtWall,    !- Construction Name
    Block Poly_10_Transport Storey 2,    !- Zone Name
    ,                         !- Space Name
    Outdoors,                 !- Outside Boundary Condition
    ,                         !- Outside Boundary Condition Object
    SunExposed,               !- Sun Exposure
    WindExposed,              !- Wind Exposure
    autocalculate,            !- View Factor to Ground
    autocalculate,            !- Number of Vertices
    66.81060939311283,        !- Vertex 1 Xcoordinate
    128.8472163812257,        !- Vertex 1 Ycoordinate
    12,                       !- Vertex 1 Zcoordinate
    66.81060939311283,        !- Vertex 2 Xcoordinate
    128.8472163812257,        !- Vertex 2 Ycoordinate
    8,                        !- Vertex 2 Zcoordinate
    63.54513706220314,        !- Vertex 3 Xcoordinate
    154.06094518117607,       !- Vertex 3 Ycoordinate
    8,                        !- Vertex 3 Zcoordinate
    63.54513706220314,        !- Vertex 4 Xcoordinate
    154.06094518117607,       !- Vertex 4 Ycoordinate
    12;                       !- Vertex 4 Zcoordinate

BUILDINGSURFACE:DETAILED,
    Block Poly_10_Transport Storey 2 Wall 0002,    !- Name
    Wall,                     !- Surface Type
    HSCWZ_Public&Industrial_2015_ExtWall,    !- Construction Name
    Block Poly_10_Transport Storey 2,    !- Zone Name
    ,                         !- Space Name
    Outdoors,                 !- Outside Boundary Condition
    ,                         !- Outside Boundary Condition Object
    SunExposed,               !- Sun Exposure
    WindExposed,              !- Wind Exposure
    autocalculate,            !- View Factor to Ground
    autocalculate,            !- Number of Vertices
    63.54513706220314,        !- Vertex 1 Xcoordinate
    154.06094518117607,       !- Vertex 1 Ycoordinate
    12,                       !- Vertex 1 Zcoordinate
    63.54513706220314,        !- Vertex 2 Xcoordinate
    154.06094518117607,       !- Vertex 2 Ycoordinate
    8,                        !- Vertex 2 Zcoordinate
    60.448675296793226,       !- Vertex 3 Xcoordinate
    164.30488186795264,       !- Vertex 3 Ycoordinate
    8,                        !- Vertex 3 Zcoordinate
    60.448675296793226,       !- Vertex 4 Xcoordinate
    164.30488186795264,       !- Vertex 4 Ycoordinate
    12;                       !- Vertex 4 Zcoordinate

BUILDINGSURFACE:DETAILED,
    Block Poly_10_Transport Storey 2 Wall 0003,    !- Name
    Wall,                     !- Surface Type
    HSCWZ_Public&Industrial_2015_ExtWall,    !- Construction Name
    Block Poly_10_Transport Storey 2,    !- Zone Name
    ,                         !- Space Name
    Outdoors,                 !- Outside Boundary Condition
    ,                         !- Outside Boundary Condition Object
    SunExposed,               !- Sun Exposure
    WindExposed,              !- Wind Exposure
    autocalculate,            !- View Factor to Ground
    autocalculate,            !- Number of Vertices
    60.448675296793226,       !- Vertex 1 Xcoordinate
    164.30488186795264,       !- Vertex 1 Ycoordinate
    12,                       !- Vertex 1 Zcoordinate
    60.448675296793226,       !- Vertex 2 Xcoordinate
    164.30488186795264,       !- Vertex 2 Ycoordinate
    8,                        !- Vertex 2 Zcoordinate
    55.934884526301175,       !- Vertex 3 Xcoordinate
    175.45588695583865,       !- Vertex 3 Ycoordinate
    8,                        !- Vertex 3 Zcoordinate
    55.934884526301175,       !- Vertex 4 Xcoordinate
    175.45588695583865,       !- Vertex 4 Ycoordinate
    12;                       !- Vertex 4 Zcoordinate

BUILDINGSURFACE:DETAILED,
    Block Poly_10_Transport Storey 2 Wall 0004,    !- Name
    Wall,                     !- Surface Type
    HSCWZ_Public&Industrial_2015_ExtWall,    !- Construction Name
    Block Poly_10_Transport Storey 2,    !- Zone Name
    ,                         !- Space Name
    Outdoors,                 !- Outside Boundary Condition
    ,                         !- Outside Boundary Condition Object
    SunExposed,               !- Sun Exposure
    WindExposed,              !- Wind Exposure
    autocalculate,            !- View Factor to Ground
    autocalculate,            !- Number of Vertices
    55.934884526301175,       !- Vertex 1 Xcoordinate
    175.45588695583865,       !- Vertex 1 Ycoordinate
    12,                       !- Vertex 1 Zcoordinate
    55.934884526301175,       !- Vertex 2 Xcoordinate
    175.45588695583865,       !- Vertex 2 Ycoordinate
    8,                        !- Vertex 2 Zcoordinate
    39.0618533535162,         !- Vertex 3 Xcoordinate
    175.69530907273293,       !- Vertex 3 Ycoordinate
    8,                        !- Vertex 3 Zcoordinate
    39.0618533535162,         !- Vertex 4 Xcoordinate
    175.69530907273293,       !- Vertex 4 Ycoordinate
    12;                       !- Vertex 4 Zcoordinate

BUILDINGSURFACE:DETAILED,
    Block Poly_10_Transport Storey 2 Wall 0005,    !- Name
    Wall,                     !- Surface Type
    HSCWZ_Public&Industrial_2015_ExtWall,    !- Construction Name
    Block Poly_10_Transport Storey 2,    !- Zone Name
    ,                         !- Space Name
    Outdoors,                 !- Outside Boundary Condition
    ,                         !- Outside Boundary Condition Object
    SunExposed,               !- Sun Exposure
    WindExposed,              !- Wind Exposure
    autocalculate,            !- View Factor to Ground
    autocalculate,            !- Number of Vertices
    39.0618533535162,         !- Vertex 1 Xcoordinate
    175.69530907273293,       !- Vertex 1 Ycoordinate
    12,                       !- Vertex 1 Zcoordinate
    39.0618533535162,         !- Vertex 2 Xcoordinate
    175.69530907273293,       !- Vertex 2 Ycoordinate
    8,                        !- Vertex 2 Zcoordinate
    38.42067523446167,        !- Vertex 3 Xcoordinate
    170.8261444461532,        !- Vertex 3 Ycoordinate
    8,                        !- Vertex 3 Zcoordinate
    38.42067523446167,        !- Vertex 4 Xcoordinate
    170.8261444461532,        !- Vertex 4 Ycoordinate
    12;                       !- Vertex 4 Zcoordinate

BUILDINGSURFACE:DETAILED,
    Block Poly_10_Transport Storey 2 Wall 0006,    !- Name
    Wall,                     !- Surface Type
    HSCWZ_Public&Industrial_2015_ExtWall,    !- Construction Name
    Block Poly_10_Transport Storey 2,    !- Zone Name
    ,                         !- Space Name
    Outdoors,                 !- Outside Boundary Condition
    ,                         !- Outside Boundary Condition Object
    SunExposed,               !- Sun Exposure
    WindExposed,              !- Wind Exposure
    autocalculate,            !- View Factor to Ground
    autocalculate,            !- Number of Vertices
    38.42067523446167,        !- Vertex 1 Xcoordinate
    170.8261444461532,        !- Vertex 1 Ycoordinate
    12,                       !- Vertex 1 Zcoordinate
    38.42067523446167,        !- Vertex 2 Xcoordinate
    170.8261444461532,        !- Vertex 2 Ycoordinate
    8,                        !- Vertex 2 Zcoordinate
    33.349419859354384,       !- Vertex 3 Xcoordinate
    169.567673698999,         !- Vertex 3 Ycoordinate
    8,                        !- Vertex 3 Zcoordinate
    33.349419859354384,       !- Vertex 4 Xcoordinate
    169.567673698999,         !- Vertex 4 Ycoordinate
    12;                       !- Vertex 4 Zcoordinate

BUILDINGSURFACE:DETAILED,
    Block Poly_10_Transport Storey 2 Wall 0007,    !- Name
    Wall,                     !- Surface Type
    HSCWZ_Public&Industrial_2015_ExtWall,    !- Construction Name
    Block Poly_10_Transport Storey 2,    !- Zone Name
    ,                         !- Space Name
    Outdoors,                 !- Outside Boundary Condition
    ,                         !- Outside Boundary Condition Object
    SunExposed,               !- Sun Exposure
    WindExposed,              !- Wind Exposure
    autocalculate,            !- View Factor to Ground
    autocalculate,            !- Number of Vertices
    33.349419859354384,       !- Vertex 1 Xcoordinate
    169.567673698999,         !- Vertex 1 Ycoordinate
    12,                       !- Vertex 1 Zcoordinate
    33.349419859354384,       !- Vertex 2 Xcoordinate
    169.567673698999,         !- Vertex 2 Ycoordinate
    8,                        !- Vertex 2 Zcoordinate
    29.100573969306424,       !- Vertex 3 Xcoordinate
    105.32359098503366,       !- Vertex 3 Ycoordinate
    8,                        !- Vertex 3 Zcoordinate
    29.100573969306424,       !- Vertex 4 Xcoordinate
    105.32359098503366,       !- Vertex 4 Ycoordinate
    12;                       !- Vertex 4 Zcoordinate

BUILDINGSURFACE:DETAILED,
    Block Poly_10_Transport Storey 2 Wall 0008,    !- Name
    Wall,                     !- Surface Type
    HSCWZ_Public&Industrial_2015_ExtWall,    !- Construction Name
    Block Poly_10_Transport Storey 2,    !- Zone Name
    ,                         !- Space Name
    Outdoors,                 !- Outside Boundary Condition
    ,                         !- Outside Boundary Condition Object
    SunExposed,               !- Sun Exposure
    WindExposed,              !- Wind Exposure
    autocalculate,            !- View Factor to Ground
    autocalculate,            !- Number of Vertices
    29.100573969306424,       !- Vertex 1 Xcoordinate
    105.32359098503366,       !- Vertex 1 Ycoordinate
    12,                       !- Vertex 1 Zcoordinate
    29.100573969306424,       !- Vertex 2 Xcoordinate
    105.32359098503366,       !- Vertex 2 Ycoordinate
    8,                        !- Vertex 2 Zcoordinate
    19.74987050244817,        !- Vertex 3 Xcoordinate
    64.5454031988047,         !- Vertex 3 Ycoordinate
    8,                        !- Vertex 3 Zcoordinate
    19.74987050244817,        !- Vertex 4 Xcoordinate
    64.5454031988047,         !- Vertex 4 Ycoordinate
    12;                       !- Vertex 4 Zcoordinate

BUILDINGSURFACE:DETAILED,
    Block Poly_10_Transport Storey 2 Wall 0009,    !- Name
    Wall,                     !- Surface Type
    HSCWZ_Public&Industrial_2015_ExtWall,    !- Construction Name
    Block Poly_10_Transport Storey 2,    !- Zone Name
    ,                         !- Space Name
    Outdoors,                 !- Outside Boundary Condition
    ,                         !- Outside Boundary Condition Object
    SunExposed,               !- Sun Exposure
    WindExposed,              !- Wind Exposure
    autocalculate,            !- View Factor to Ground
    autocalculate,            !- Number of Vertices
    19.74987050244817,        !- Vertex 1 Xcoordinate
    64.5454031988047,         !- Vertex 1 Ycoordinate
    12,                       !- Vertex 1 Zcoordinate
    19.74987050244817,        !- Vertex 2 Xcoordinate
    64.5454031988047,         !- Vertex 2 Ycoordinate
    8,                        !- Vertex 2 Zcoordinate
    6.714302250882611,        !- Vertex 3 Xcoordinate
    26.147781824227422,       !- Vertex 3 Ycoordinate
    8,                        !- Vertex 3 Zcoordinate
    6.714302250882611,        !- Vertex 4 Xcoordinate
    26.147781824227422,       !- Vertex 4 Ycoordinate
    12;                       !- Vertex 4 Zcoordinate

BUILDINGSURFACE:DETAILED,
    Block Poly_10_Transport Storey 2 Wall 0010,    !- Name
    Wall,                     !- Surface Type
    HSCWZ_Public&Industrial_2015_ExtWall,    !- Construction Name
    Block Poly_10_Transport Storey 2,    !- Zone Name
    ,                         !- Space Name
    Outdoors,                 !- Outside Boundary Condition
    ,                         !- Outside Boundary Condition Object
    SunExposed,               !- Sun Exposure
    WindExposed,              !- Wind Exposure
    autocalculate,            !- View Factor to Ground
    autocalculate,            !- Number of Vertices
    6.714302250882611,        !- Vertex 1 Xcoordinate
    26.147781824227422,       !- Vertex 1 Ycoordinate
    12,                       !- Vertex 1 Zcoordinate
    6.714302250882611,        !- Vertex 2 Xcoordinate
    26.147781824227422,       !- Vertex 2 Ycoordinate
    8,                        !- Vertex 2 Zcoordinate
    11.74629984179046,        !- Vertex 3 Xcoordinate
    24.63506024889648,        !- Vertex 3 Ycoordinate
    8,                        !- Vertex 3 Zcoordinate
    11.74629984179046,        !- Vertex 4 Xcoordinate
    24.63506024889648,        !- Vertex 4 Ycoordinate
    12;                       !- Vertex 4 Zcoordinate

BUILDINGSURFACE:DETAILED,
    Block Poly_10_Transport Storey 2 Wall 0011,    !- Name
    Wall,                     !- Surface Type
    HSCWZ_Public&Industrial_2015_ExtWall,    !- Construction Name
    Block Poly_10_Transport Storey 2,    !- Zone Name
    ,                         !- Space Name
    Outdoors,                 !- Outside Boundary Condition
    ,                         !- Outside Boundary Condition Object
    SunExposed,               !- Sun Exposure
    WindExposed,              !- Wind Exposure
    autocalculate,            !- View Factor to Ground
    autocalculate,            !- Number of Vertices
    11.74629984179046,        !- Vertex 1 Xcoordinate
    24.63506024889648,        !- Vertex 1 Ycoordinate
    12,                       !- Vertex 1 Zcoordinate
    11.74629984179046,        !- Vertex 2 Xcoordinate
    24.63506024889648,        !- Vertex 2 Ycoordinate
    8,                        !- Vertex 2 Zcoordinate
    0,                        !- Vertex 3 Xcoordinate
    3.182198490481824,        !- Vertex 3 Ycoordinate
    8,                        !- Vertex 3 Zcoordinate
    0,                        !- Vertex 4 Xcoordinate
    3.182198490481824,        !- Vertex 4 Ycoordinate
    12;                       !- Vertex 4 Zcoordinate

BUILDINGSURFACE:DETAILED,
    Block Poly_10_Transport Storey 2 Wall 0012,    !- Name
    Wall,                     !- Surface Type
    HSCWZ_Public&Industrial_2015_ExtWall,    !- Construction Name
    Block Poly_10_Transport Storey 2,    !- Zone Name
    ,                         !- Space Name
    Outdoors,                 !- Outside Boundary Condition
    ,                         !- Outside Boundary Condition Object
    SunExposed,               !- Sun Exposure
    WindExposed,              !- Wind Exposure
    autocalculate,            !- View Factor to Ground
    autocalculate,            !- Number of Vertices
    0,                        !- Vertex 1 Xcoordinate
    3.182198490481824,        !- Vertex 1 Ycoordinate
    12,                       !- Vertex 1 Zcoordinate
    0,                        !- Vertex 2 Xcoordinate
    3.182198490481824,        !- Vertex 2 Ycoordinate
    8,                        !- Vertex 2 Zcoordinate
    5.48505680821836,         !- Vertex 3 Xcoordinate
    0,                        !- Vertex 3 Ycoordinate
    8,                        !- Vertex 3 Zcoordinate
    5.48505680821836,         !- Vertex 4 Xcoordinate
    0,                        !- Vertex 4 Ycoordinate
    12;                       !- Vertex 4 Zcoordinate

BUILDINGSURFACE:DETAILED,
    Block Poly_10_Transport Storey 2 Wall 0013,    !- Name
    Wall,                     !- Surface Type
    HSCWZ_Public&Industrial_2015_ExtWall,    !- Construction Name
    Block Poly_10_Transport Storey 2,    !- Zone Name
    ,                         !- Space Name
    Outdoors,                 !- Outside Boundary Condition
    ,                         !- Outside Boundary Condition Object
    SunExposed,               !- Sun Exposure
    WindExposed,              !- Wind Exposure
    autocalculate,            !- View Factor to Ground
    autocalculate,            !- Number of Vertices
    5.48505680821836,         !- Vertex 1 Xcoordinate
    0,                        !- Vertex 1 Ycoordinate
    12,                       !- Vertex 1 Zcoordinate
    5.48505680821836,         !- Vertex 2 Xcoordinate
    0,                        !- Vertex 2 Ycoordinate
    8,                        !- Vertex 2 Zcoordinate
    19.96852575952653,        !- Vertex 3 Xcoordinate
    12.76619346253574,        !- Vertex 3 Ycoordinate
    8,                        !- Vertex 3 Zcoordinate
    19.96852575952653,        !- Vertex 4 Xcoordinate
    12.76619346253574,        !- Vertex 4 Ycoordinate
    12;                       !- Vertex 4 Zcoordinate

BUILDINGSURFACE:DETAILED,
    Block Poly_10_Transport Storey 2 Wall 0014,    !- Name
    Wall,                     !- Surface Type
    HSCWZ_Public&Industrial_2015_ExtWall,    !- Construction Name
    Block Poly_10_Transport Storey 2,    !- Zone Name
    ,                         !- Space Name
    Outdoors,                 !- Outside Boundary Condition
    ,                         !- Outside Boundary Condition Object
    SunExposed,               !- Sun Exposure
    WindExposed,              !- Wind Exposure
    autocalculate,            !- View Factor to Ground
    autocalculate,            !- Number of Vertices
    19.96852575952653,        !- Vertex 1 Xcoordinate
    12.76619346253574,        !- Vertex 1 Ycoordinate
    12,                       !- Vertex 1 Zcoordinate
    19.96852575952653,        !- Vertex 2 Xcoordinate
    12.76619346253574,        !- Vertex 2 Ycoordinate
    8,                        !- Vertex 2 Zcoordinate
    43.61737599730259,        !- Vertex 3 Xcoordinate
    39.81539847282693,        !- Vertex 3 Ycoordinate
    8,                        !- Vertex 3 Zcoordinate
    43.61737599730259,        !- Vertex 4 Xcoordinate
    39.81539847282693,        !- Vertex 4 Ycoordinate
    12;                       !- Vertex 4 Zcoordinate

BUILDINGSURFACE:DETAILED,
    Block Poly_10_Transport Storey 2 Wall 0015,    !- Name
    Wall,                     !- Surface Type
    HSCWZ_Public&Industrial_2015_ExtWall,    !- Construction Name
    Block Poly_10_Transport Storey 2,    !- Zone Name
    ,                         !- Space Name
    Outdoors,                 !- Outside Boundary Condition
    ,                         !- Outside Boundary Condition Object
    SunExposed,               !- Sun Exposure
    WindExposed,              !- Wind Exposure
    autocalculate,            !- View Factor to Ground
    autocalculate,            !- Number of Vertices
    43.61737599730259,        !- Vertex 1 Xcoordinate
    39.81539847282693,        !- Vertex 1 Ycoordinate
    12,                       !- Vertex 1 Zcoordinate
    43.61737599730259,        !- Vertex 2 Xcoordinate
    39.81539847282693,        !- Vertex 2 Ycoordinate
    8,                        !- Vertex 2 Zcoordinate
    52.13433890312445,        !- Vertex 3 Xcoordinate
    55.43803394399583,        !- Vertex 3 Ycoordinate
    8,                        !- Vertex 3 Zcoordinate
    52.13433890312445,        !- Vertex 4 Xcoordinate
    55.43803394399583,        !- Vertex 4 Ycoordinate
    12;                       !- Vertex 4 Zcoordinate

BUILDINGSURFACE:DETAILED,
    Block Poly_10_Transport Storey 2 Wall 0016,    !- Name
    Wall,                     !- Surface Type
    HSCWZ_Public&Industrial_2015_ExtWall,    !- Construction Name
    Block Poly_10_Transport Storey 2,    !- Zone Name
    ,                         !- Space Name
    Outdoors,                 !- Outside Boundary Condition
    ,                         !- Outside Boundary Condition Object
    SunExposed,               !- Sun Exposure
    WindExposed,              !- Wind Exposure
    autocalculate,            !- View Factor to Ground
    autocalculate,            !- Number of Vertices
    52.13433890312445,        !- Vertex 1 Xcoordinate
    55.43803394399583,        !- Vertex 1 Ycoordinate
    12,                       !- Vertex 1 Zcoordinate
    52.13433890312445,        !- Vertex 2 Xcoordinate
    55.43803394399583,        !- Vertex 2 Ycoordinate
    8,                        !- Vertex 2 Zcoordinate
    58.73998370452318,        !- Vertex 3 Xcoordinate
    70.75518421921879,        !- Vertex 3 Ycoordinate
    8,                        !- Vertex 3 Zcoordinate
    58.73998370452318,        !- Vertex 4 Xcoordinate
    70.75518421921879,        !- Vertex 4 Ycoordinate
    12;                       !- Vertex 4 Zcoordinate

BUILDINGSURFACE:DETAILED,
    Block Poly_10_Transport Storey 2 Wall 0017,    !- Name
    Wall,                     !- Surface Type
    HSCWZ_Public&Industrial_2015_ExtWall,    !- Construction Name
    Block Poly_10_Transport Storey 2,    !- Zone Name
    ,                         !- Space Name
    Outdoors,                 !- Outside Boundary Condition
    ,                         !- Outside Boundary Condition Object
    SunExposed,               !- Sun Exposure
    WindExposed,              !- Wind Exposure
    autocalculate,            !- View Factor to Ground
    autocalculate,            !- Number of Vertices
    58.73998370452318,        !- Vertex 1 Xcoordinate
    70.75518421921879,        !- Vertex 1 Ycoordinate
    12,                       !- Vertex 1 Zcoordinate
    58.73998370452318,        !- Vertex 2 Xcoordinate
    70.75518421921879,        !- Vertex 2 Ycoordinate
    8,                        !- Vertex 2 Zcoordinate
    62.13431701203808,        !- Vertex 3 Xcoordinate
    88.2244211435318,         !- Vertex 3 Ycoordinate
    8,                        !- Vertex 3 Zcoordinate
    62.13431701203808,        !- Vertex 4 Xcoordinate
    88.2244211435318,         !- Vertex 4 Ycoordinate
    12;                       !- Vertex 4 Zcoordinate

BUILDINGSURFACE:DETAILED,
    Block Poly_10_Transport Storey 2 Wall 0018,    !- Name
    Wall,                     !- Surface Type
    HSCWZ_Public&Industrial_2015_ExtWall,    !- Construction Name
    Block Poly_10_Transport Storey 2,    !- Zone Name
    ,                         !- Space Name
    Outdoors,                 !- Outside Boundary Condition
    ,                         !- Outside Boundary Condition Object
    SunExposed,               !- Sun Exposure
    WindExposed,              !- Wind Exposure
    autocalculate,            !- View Factor to Ground
    autocalculate,            !- Number of Vertices
    62.13431701203808,        !- Vertex 1 Xcoordinate
    88.2244211435318,         !- Vertex 1 Ycoordinate
    12,                       !- Vertex 1 Zcoordinate
    62.13431701203808,        !- Vertex 2 Xcoordinate
    88.2244211435318,         !- Vertex 2 Ycoordinate
    8,                        !- Vertex 2 Zcoordinate
    64.09399570594542,        !- Vertex 3 Xcoordinate
    105.38140459405258,       !- Vertex 3 Ycoordinate
    8,                        !- Vertex 3 Zcoordinate
    64.09399570594542,        !- Vertex 4 Xcoordinate
    105.38140459405258,       !- Vertex 4 Ycoordinate
    12;                       !- Vertex 4 Zcoordinate

BUILDINGSURFACE:DETAILED,
    Block Poly_10_Transport Storey 2 Wall 0019,    !- Name
    Wall,                     !- Surface Type
    HSCWZ_Public&Industrial_2015_ExtWall,    !- Construction Name
    Block Poly_10_Transport Storey 2,    !- Zone Name
    ,                         !- Space Name
    Outdoors,                 !- Outside Boundary Condition
    ,                         !- Outside Boundary Condition Object
    SunExposed,               !- Sun Exposure
    WindExposed,              !- Wind Exposure
    autocalculate,            !- View Factor to Ground
    autocalculate,            !- Number of Vertices
    64.09399570594542,        !- Vertex 1 Xcoordinate
    105.38140459405258,       !- Vertex 1 Ycoordinate
    12,                       !- Vertex 1 Zcoordinate
    64.09399570594542,        !- Vertex 2 Xcoordinate
    105.38140459405258,       !- Vertex 2 Ycoordinate
    8,                        !- Vertex 2 Zcoordinate
    67.36129693506518,        !- Vertex 3 Xcoordinate
    100.45678756013513,       !- Vertex 3 Ycoordinate
    8,                        !- Vertex 3 Zcoordinate
    67.36129693506518,        !- Vertex 4 Xcoordinate
    100.45678756013513,       !- Vertex 4 Ycoordinate
    12;                       !- Vertex 4 Zcoordinate

BUILDINGSURFACE:DETAILED,
    Block Poly_10_Transport Storey 2 Wall 0020,    !- Name
    Wall,                     !- Surface Type
    HSCWZ_Public&Industrial_2015_ExtWall,    !- Construction Name
    Block Poly_10_Transport Storey 2,    !- Zone Name
    ,                         !- Space Name
    Outdoors,                 !- Outside Boundary Condition
    ,                         !- Outside Boundary Condition Object
    SunExposed,               !- Sun Exposure
    WindExposed,              !- Wind Exposure
    autocalculate,            !- View Factor to Ground
    autocalculate,            !- Number of Vertices
    67.36129693506518,        !- Vertex 1 Xcoordinate
    100.45678756013513,       !- Vertex 1 Ycoordinate
    12,                       !- Vertex 1 Zcoordinate
    67.36129693506518,        !- Vertex 2 Xcoordinate
    100.45678756013513,       !- Vertex 2 Ycoordinate
    8,                        !- Vertex 2 Zcoordinate
    70.38193054415751,        !- Vertex 3 Xcoordinate
    98.3074109419249,         !- Vertex 3 Ycoordinate
    8,                        !- Vertex 3 Zcoordinate
    70.38193054415751,        !- Vertex 4 Xcoordinate
    98.3074109419249,         !- Vertex 4 Ycoordinate
    12;                       !- Vertex 4 Zcoordinate

BUILDINGSURFACE:DETAILED,
    Block Poly_10_Transport Storey 2 Wall 0021,    !- Name
    Wall,                     !- Surface Type
    HSCWZ_Public&Industrial_2015_ExtWall,    !- Construction Name
    Block Poly_10_Transport Storey 2,    !- Zone Name
    ,                         !- Space Name
    Outdoors,                 !- Outside Boundary Condition
    ,                         !- Outside Boundary Condition Object
    SunExposed,               !- Sun Exposure
    WindExposed,              !- Wind Exposure
    autocalculate,            !- View Factor to Ground
    autocalculate,            !- Number of Vertices
    70.38193054415751,        !- Vertex 1 Xcoordinate
    98.3074109419249,         !- Vertex 1 Ycoordinate
    12,                       !- Vertex 1 Zcoordinate
    70.38193054415751,        !- Vertex 2 Xcoordinate
    98.3074109419249,         !- Vertex 2 Ycoordinate
    8,                        !- Vertex 2 Zcoordinate
    79.63351727463305,        !- Vertex 3 Xcoordinate
    98.50877078669146,        !- Vertex 3 Ycoordinate
    8,                        !- Vertex 3 Zcoordinate
    79.63351727463305,        !- Vertex 4 Xcoordinate
    98.50877078669146,        !- Vertex 4 Ycoordinate
    12;                       !- Vertex 4 Zcoordinate

BUILDINGSURFACE:DETAILED,
    Block Poly_10_Transport Storey 2 Wall 0022,    !- Name
    Wall,                     !- Surface Type
    HSCWZ_Public&Industrial_2015_ExtWall,    !- Construction Name
    Block Poly_10_Transport Storey 2,    !- Zone Name
    ,                         !- Space Name
    Outdoors,                 !- Outside Boundary Condition
    ,                         !- Outside Boundary Condition Object
    SunExposed,               !- Sun Exposure
    WindExposed,              !- Wind Exposure
    autocalculate,            !- View Factor to Ground
    autocalculate,            !- Number of Vertices
    79.63351727463305,        !- Vertex 1 Xcoordinate
    98.50877078669146,        !- Vertex 1 Ycoordinate
    12,                       !- Vertex 1 Zcoordinate
    79.63351727463305,        !- Vertex 2 Xcoordinate
    98.50877078669146,        !- Vertex 2 Ycoordinate
    8,                        !- Vertex 2 Zcoordinate
    84.16742233437253,        !- Vertex 3 Xcoordinate
    102.2140186545439,        !- Vertex 3 Ycoordinate
    8,                        !- Vertex 3 Zcoordinate
    84.16742233437253,        !- Vertex 4 Xcoordinate
    102.2140186545439,        !- Vertex 4 Ycoordinate
    12;                       !- Vertex 4 Zcoordinate

BUILDINGSURFACE:DETAILED,
    Block Poly_10_Transport Storey 2 Wall 0023,    !- Name
    Wall,                     !- Surface Type
    HSCWZ_Public&Industrial_2015_ExtWall,    !- Construction Name
    Block Poly_10_Transport Storey 2,    !- Zone Name
    ,                         !- Space Name
    Outdoors,                 !- Outside Boundary Condition
    ,                         !- Outside Boundary Condition Object
    SunExposed,               !- Sun Exposure
    WindExposed,              !- Wind Exposure
    autocalculate,            !- View Factor to Ground
    autocalculate,            !- Number of Vertices
    84.16742233437253,        !- Vertex 1 Xcoordinate
    102.2140186545439,        !- Vertex 1 Ycoordinate
    12,                       !- Vertex 1 Zcoordinate
    84.16742233437253,        !- Vertex 2 Xcoordinate
    102.2140186545439,        !- Vertex 2 Ycoordinate
    8,                        !- Vertex 2 Zcoordinate
    86.42130297445692,        !- Vertex 3 Xcoordinate
    106.5059594810009,        !- Vertex 3 Ycoordinate
    8,                        !- Vertex 3 Zcoordinate
    86.42130297445692,        !- Vertex 4 Xcoordinate
    106.5059594810009,        !- Vertex 4 Ycoordinate
    12;                       !- Vertex 4 Zcoordinate

BUILDINGSURFACE:DETAILED,
    Block Poly_10_Transport Storey 2 Wall 0024,    !- Name
    Wall,                     !- Surface Type
    HSCWZ_Public&Industrial_2015_ExtWall,    !- Construction Name
    Block Poly_10_Transport Storey 2,    !- Zone Name
    ,                         !- Space Name
    Outdoors,                 !- Outside Boundary Condition
    ,                         !- Outside Boundary Condition Object
    SunExposed,               !- Sun Exposure
    WindExposed,              !- Wind Exposure
    autocalculate,            !- View Factor to Ground
    autocalculate,            !- Number of Vertices
    86.42130297445692,        !- Vertex 1 Xcoordinate
    106.5059594810009,        !- Vertex 1 Ycoordinate
    12,                       !- Vertex 1 Zcoordinate
    86.42130297445692,        !- Vertex 2 Xcoordinate
    106.5059594810009,        !- Vertex 2 Ycoordinate
    8,                        !- Vertex 2 Zcoordinate
    87.41448799846694,        !- Vertex 3 Xcoordinate
    116.02665463322774,       !- Vertex 3 Ycoordinate
    8,                        !- Vertex 3 Zcoordinate
    87.41448799846694,        !- Vertex 4 Xcoordinate
    116.02665463322774,       !- Vertex 4 Ycoordinate
    12;                       !- Vertex 4 Zcoordinate

BUILDINGSURFACE:DETAILED,
    Block Poly_10_Transport Storey 2 Wall 0025,    !- Name
    Wall,                     !- Surface Type
    HSCWZ_Public&Industrial_2015_ExtWall,    !- Construction Name
    Block Poly_10_Transport Storey 2,    !- Zone Name
    ,                         !- Space Name
    Outdoors,                 !- Outside Boundary Condition
    ,                         !- Outside Boundary Condition Object
    SunExposed,               !- Sun Exposure
    WindExposed,              !- Wind Exposure
    autocalculate,            !- View Factor to Ground
    autocalculate,            !- Number of Vertices
    87.41448799846694,        !- Vertex 1 Xcoordinate
    116.02665463322774,       !- Vertex 1 Ycoordinate
    12,                       !- Vertex 1 Zcoordinate
    87.41448799846694,        !- Vertex 2 Xcoordinate
    116.02665463322774,       !- Vertex 2 Ycoordinate
    8,                        !- Vertex 2 Zcoordinate
    85.75263154995628,        !- Vertex 3 Xcoordinate
    126.5828396230936,        !- Vertex 3 Ycoordinate
    8,                        !- Vertex 3 Zcoordinate
    85.75263154995628,        !- Vertex 4 Xcoordinate
    126.5828396230936,        !- Vertex 4 Ycoordinate
    12;                       !- Vertex 4 Zcoordinate

BUILDINGSURFACE:DETAILED,
    Block Poly_10_Transport Storey 2 Wall 0026,    !- Name
    Wall,                     !- Surface Type
    HSCWZ_Public&Industrial_2015_ExtWall,    !- Construction Name
    Block Poly_10_Transport Storey 2,    !- Zone Name
    ,                         !- Space Name
    Outdoors,                 !- Outside Boundary Condition
    ,                         !- Outside Boundary Condition Object
    SunExposed,               !- Sun Exposure
    WindExposed,              !- Wind Exposure
    autocalculate,            !- View Factor to Ground
    autocalculate,            !- Number of Vertices
    85.75263154995628,        !- Vertex 1 Xcoordinate
    126.5828396230936,        !- Vertex 1 Ycoordinate
    12,                       !- Vertex 1 Zcoordinate
    85.75263154995628,        !- Vertex 2 Xcoordinate
    126.5828396230936,        !- Vertex 2 Ycoordinate
    8,                        !- Vertex 2 Zcoordinate
    82.37585028866306,        !- Vertex 3 Xcoordinate
    130.51117793750018,       !- Vertex 3 Ycoordinate
    8,                        !- Vertex 3 Zcoordinate
    82.37585028866306,        !- Vertex 4 Xcoordinate
    130.51117793750018,       !- Vertex 4 Ycoordinate
    12;                       !- Vertex 4 Zcoordinate

BUILDINGSURFACE:DETAILED,
    Block Poly_10_Transport Storey 2 Wall 0027,    !- Name
    Wall,                     !- Surface Type
    HSCWZ_Public&Industrial_2015_ExtWall,    !- Construction Name
    Block Poly_10_Transport Storey 2,    !- Zone Name
    ,                         !- Space Name
    Outdoors,                 !- Outside Boundary Condition
    ,                         !- Outside Boundary Condition Object
    SunExposed,               !- Sun Exposure
    WindExposed,              !- Wind Exposure
    autocalculate,            !- View Factor to Ground
    autocalculate,            !- Number of Vertices
    82.37585028866306,        !- Vertex 1 Xcoordinate
    130.51117793750018,       !- Vertex 1 Ycoordinate
    12,                       !- Vertex 1 Zcoordinate
    82.37585028866306,        !- Vertex 2 Xcoordinate
    130.51117793750018,       !- Vertex 2 Ycoordinate
    8,                        !- Vertex 2 Zcoordinate
    79.72867442009738,        !- Vertex 3 Xcoordinate
    132.1009056251496,        !- Vertex 3 Ycoordinate
    8,                        !- Vertex 3 Zcoordinate
    79.72867442009738,        !- Vertex 4 Xcoordinate
    132.1009056251496,        !- Vertex 4 Ycoordinate
    12;                       !- Vertex 4 Zcoordinate

BUILDINGSURFACE:DETAILED,
    Block Poly_10_Transport Storey 2 Wall 0028,    !- Name
    Wall,                     !- Surface Type
    HSCWZ_Public&Industrial_2015_ExtWall,    !- Construction Name
    Block Poly_10_Transport Storey 2,    !- Zone Name
    ,                         !- Space Name
    Outdoors,                 !- Outside Boundary Condition
    ,                         !- Outside Boundary Condition Object
    SunExposed,               !- Sun Exposure
    WindExposed,              !- Wind Exposure
    autocalculate,            !- View Factor to Ground
    autocalculate,            !- Number of Vertices
    79.72867442009738,        !- Vertex 1 Xcoordinate
    132.1009056251496,        !- Vertex 1 Ycoordinate
    12,                       !- Vertex 1 Zcoordinate
    79.72867442009738,        !- Vertex 2 Xcoordinate
    132.1009056251496,        !- Vertex 2 Ycoordinate
    8,                        !- Vertex 2 Zcoordinate
    72.94464333995711,        !- Vertex 3 Xcoordinate
    131.0884525887668,        !- Vertex 3 Ycoordinate
    8,                        !- Vertex 3 Zcoordinate
    72.94464333995711,        !- Vertex 4 Xcoordinate
    131.0884525887668,        !- Vertex 4 Ycoordinate
    12;                       !- Vertex 4 Zcoordinate

BUILDINGSURFACE:DETAILED,
    Block Poly_10_Transport Storey 2 Wall 0029,    !- Name
    Wall,                     !- Surface Type
    HSCWZ_Public&Industrial_2015_ExtWall,    !- Construction Name
    Block Poly_10_Transport Storey 2,    !- Zone Name
    ,                         !- Space Name
    Outdoors,                 !- Outside Boundary Condition
    ,                         !- Outside Boundary Condition Object
    SunExposed,               !- Sun Exposure
    WindExposed,              !- Wind Exposure
    autocalculate,            !- View Factor to Ground
    autocalculate,            !- Number of Vertices
    72.94464333995711,        !- Vertex 1 Xcoordinate
    131.0884525887668,        !- Vertex 1 Ycoordinate
    12,                       !- Vertex 1 Zcoordinate
    72.94464333995711,        !- Vertex 2 Xcoordinate
    131.0884525887668,        !- Vertex 2 Ycoordinate
    8,                        !- Vertex 2 Zcoordinate
    68.41074579709675,        !- Vertex 3 Xcoordinate
    127.38320972304793,       !- Vertex 3 Ycoordinate
    8,                        !- Vertex 3 Zcoordinate
    68.41074579709675,        !- Vertex 4 Xcoordinate
    127.38320972304793,       !- Vertex 4 Ycoordinate
    12;                       !- Vertex 4 Zcoordinate

BUILDINGSURFACE:DETAILED,
    Block Poly_10_Transport Storey 2 Wall 0030,    !- Name
    Wall,                     !- Surface Type
    HSCWZ_Public&Industrial_2015_ExtWall,    !- Construction Name
    Block Poly_10_Transport Storey 2,    !- Zone Name
    ,                         !- Space Name
    Outdoors,                 !- Outside Boundary Condition
    ,                         !- Outside Boundary Condition Object
    SunExposed,               !- Sun Exposure
    WindExposed,              !- Wind Exposure
    autocalculate,            !- View Factor to Ground
    autocalculate,            !- Number of Vertices
    68.41074579709675,        !- Vertex 1 Xcoordinate
    127.38320972304793,       !- Vertex 1 Ycoordinate
    12,                       !- Vertex 1 Zcoordinate
    68.41074579709675,        !- Vertex 2 Xcoordinate
    127.38320972304793,       !- Vertex 2 Ycoordinate
    8,                        !- Vertex 2 Zcoordinate
    66.26634374901187,        !- Vertex 3 Xcoordinate
    124.0875455737114,        !- Vertex 3 Ycoordinate
    8,                        !- Vertex 3 Zcoordinate
    66.26634374901187,        !- Vertex 4 Xcoordinate
    124.0875455737114,        !- Vertex 4 Ycoordinate
    12;                       !- Vertex 4 Zcoordinate

BUILDINGSURFACE:DETAILED,
    Block Poly_10_Transport Storey 2 Wall 0031,    !- Name
    Wall,                     !- Surface Type
    HSCWZ_Public&Industrial_2015_ExtWall,    !- Construction Name
    Block Poly_10_Transport Storey 2,    !- Zone Name
    ,                         !- Space Name
    Outdoors,                 !- Outside Boundary Condition
    ,                         !- Outside Boundary Condition Object
    SunExposed,               !- Sun Exposure
    WindExposed,              !- Wind Exposure
    autocalculate,            !- View Factor to Ground
    autocalculate,            !- Number of Vertices
    66.26634374901187,        !- Vertex 1 Xcoordinate
    124.0875455737114,        !- Vertex 1 Ycoordinate
    12,                       !- Vertex 1 Zcoordinate
    66.26634374901187,        !- Vertex 2 Xcoordinate
    124.0875455737114,        !- Vertex 2 Ycoordinate
    8,                        !- Vertex 2 Zcoordinate
    66.81060939311283,        !- Vertex 3 Xcoordinate
    128.8472163812257,        !- Vertex 3 Ycoordinate
    8,                        !- Vertex 3 Zcoordinate
    66.81060939311283,        !- Vertex 4 Xcoordinate
    128.8472163812257,        !- Vertex 4 Ycoordinate
    12;                       !- Vertex 4 Zcoordinate

BUILDINGSURFACE:DETAILED,
    Block Poly_10_Transport Storey 3 Wall 0001,    !- Name
    Wall,                     !- Surface Type
    HSCWZ_Public&Industrial_2015_ExtWall,    !- Construction Name
    Block Poly_10_Transport Storey 3,    !- Zone Name
    ,                         !- Space Name
    Outdoors,                 !- Outside Boundary Condition
    ,                         !- Outside Boundary Condition Object
    SunExposed,               !- Sun Exposure
    WindExposed,              !- Wind Exposure
    autocalculate,            !- View Factor to Ground
    autocalculate,            !- Number of Vertices
    66.81060939311283,        !- Vertex 1 Xcoordinate
    128.8472163812257,        !- Vertex 1 Ycoordinate
    16,                       !- Vertex 1 Zcoordinate
    66.81060939311283,        !- Vertex 2 Xcoordinate
    128.8472163812257,        !- Vertex 2 Ycoordinate
    12,                       !- Vertex 2 Zcoordinate
    63.54513706220314,        !- Vertex 3 Xcoordinate
    154.06094518117607,       !- Vertex 3 Ycoordinate
    12,                       !- Vertex 3 Zcoordinate
    63.54513706220314,        !- Vertex 4 Xcoordinate
    154.06094518117607,       !- Vertex 4 Ycoordinate
    16;                       !- Vertex 4 Zcoordinate

BUILDINGSURFACE:DETAILED,
    Block Poly_10_Transport Storey 3 Wall 0002,    !- Name
    Wall,                     !- Surface Type
    HSCWZ_Public&Industrial_2015_ExtWall,    !- Construction Name
    Block Poly_10_Transport Storey 3,    !- Zone Name
    ,                         !- Space Name
    Outdoors,                 !- Outside Boundary Condition
    ,                         !- Outside Boundary Condition Object
    SunExposed,               !- Sun Exposure
    WindExposed,              !- Wind Exposure
    autocalculate,            !- View Factor to Ground
    autocalculate,            !- Number of Vertices
    63.54513706220314,        !- Vertex 1 Xcoordinate
    154.06094518117607,       !- Vertex 1 Ycoordinate
    16,                       !- Vertex 1 Zcoordinate
    63.54513706220314,        !- Vertex 2 Xcoordinate
    154.06094518117607,       !- Vertex 2 Ycoordinate
    12,                       !- Vertex 2 Zcoordinate
    60.448675296793226,       !- Vertex 3 Xcoordinate
    164.30488186795264,       !- Vertex 3 Ycoordinate
    12,                       !- Vertex 3 Zcoordinate
    60.448675296793226,       !- Vertex 4 Xcoordinate
    164.30488186795264,       !- Vertex 4 Ycoordinate
    16;                       !- Vertex 4 Zcoordinate

BUILDINGSURFACE:DETAILED,
    Block Poly_10_Transport Storey 3 Wall 0003,    !- Name
    Wall,                     !- Surface Type
    HSCWZ_Public&Industrial_2015_ExtWall,    !- Construction Name
    Block Poly_10_Transport Storey 3,    !- Zone Name
    ,                         !- Space Name
    Outdoors,                 !- Outside Boundary Condition
    ,                         !- Outside Boundary Condition Object
    SunExposed,               !- Sun Exposure
    WindExposed,              !- Wind Exposure
    autocalculate,            !- View Factor to Ground
    autocalculate,            !- Number of Vertices
    60.448675296793226,       !- Vertex 1 Xcoordinate
    164.30488186795264,       !- Vertex 1 Ycoordinate
    16,                       !- Vertex 1 Zcoordinate
    60.448675296793226,       !- Vertex 2 Xcoordinate
    164.30488186795264,       !- Vertex 2 Ycoordinate
    12,                       !- Vertex 2 Zcoordinate
    55.934884526301175,       !- Vertex 3 Xcoordinate
    175.45588695583865,       !- Vertex 3 Ycoordinate
    12,                       !- Vertex 3 Zcoordinate
    55.934884526301175,       !- Vertex 4 Xcoordinate
    175.45588695583865,       !- Vertex 4 Ycoordinate
    16;                       !- Vertex 4 Zcoordinate

BUILDINGSURFACE:DETAILED,
    Block Poly_10_Transport Storey 3 Wall 0004,    !- Name
    Wall,                     !- Surface Type
    HSCWZ_Public&Industrial_2015_ExtWall,    !- Construction Name
    Block Poly_10_Transport Storey 3,    !- Zone Name
    ,                         !- Space Name
    Outdoors,                 !- Outside Boundary Condition
    ,                         !- Outside Boundary Condition Object
    SunExposed,               !- Sun Exposure
    WindExposed,              !- Wind Exposure
    autocalculate,            !- View Factor to Ground
    autocalculate,            !- Number of Vertices
    55.934884526301175,       !- Vertex 1 Xcoordinate
    175.45588695583865,       !- Vertex 1 Ycoordinate
    16,                       !- Vertex 1 Zcoordinate
    55.934884526301175,       !- Vertex 2 Xcoordinate
    175.45588695583865,       !- Vertex 2 Ycoordinate
    12,                       !- Vertex 2 Zcoordinate
    39.0618533535162,         !- Vertex 3 Xcoordinate
    175.69530907273293,       !- Vertex 3 Ycoordinate
    12,                       !- Vertex 3 Zcoordinate
    39.0618533535162,         !- Vertex 4 Xcoordinate
    175.69530907273293,       !- Vertex 4 Ycoordinate
    16;                       !- Vertex 4 Zcoordinate

BUILDINGSURFACE:DETAILED,
    Block Poly_10_Transport Storey 3 Wall 0005,    !- Name
    Wall,                     !- Surface Type
    HSCWZ_Public&Industrial_2015_ExtWall,    !- Construction Name
    Block Poly_10_Transport Storey 3,    !- Zone Name
    ,                         !- Space Name
    Outdoors,                 !- Outside Boundary Condition
    ,                         !- Outside Boundary Condition Object
    SunExposed,               !- Sun Exposure
    WindExposed,              !- Wind Exposure
    autocalculate,            !- View Factor to Ground
    autocalculate,            !- Number of Vertices
    39.0618533535162,         !- Vertex 1 Xcoordinate
    175.69530907273293,       !- Vertex 1 Ycoordinate
    16,                       !- Vertex 1 Zcoordinate
    39.0618533535162,         !- Vertex 2 Xcoordinate
    175.69530907273293,       !- Vertex 2 Ycoordinate
    12,                       !- Vertex 2 Zcoordinate
    38.42067523446167,        !- Vertex 3 Xcoordinate
    170.8261444461532,        !- Vertex 3 Ycoordinate
    12,                       !- Vertex 3 Zcoordinate
    38.42067523446167,        !- Vertex 4 Xcoordinate
    170.8261444461532,        !- Vertex 4 Ycoordinate
    16;                       !- Vertex 4 Zcoordinate

BUILDINGSURFACE:DETAILED,
    Block Poly_10_Transport Storey 3 Wall 0006,    !- Name
    Wall,                     !- Surface Type
    HSCWZ_Public&Industrial_2015_ExtWall,    !- Construction Name
    Block Poly_10_Transport Storey 3,    !- Zone Name
    ,                         !- Space Name
    Outdoors,                 !- Outside Boundary Condition
    ,                         !- Outside Boundary Condition Object
    SunExposed,               !- Sun Exposure
    WindExposed,              !- Wind Exposure
    autocalculate,            !- View Factor to Ground
    autocalculate,            !- Number of Vertices
    38.42067523446167,        !- Vertex 1 Xcoordinate
    170.8261444461532,        !- Vertex 1 Ycoordinate
    16,                       !- Vertex 1 Zcoordinate
    38.42067523446167,        !- Vertex 2 Xcoordinate
    170.8261444461532,        !- Vertex 2 Ycoordinate
    12,                       !- Vertex 2 Zcoordinate
    33.349419859354384,       !- Vertex 3 Xcoordinate
    169.567673698999,         !- Vertex 3 Ycoordinate
    12,                       !- Vertex 3 Zcoordinate
    33.349419859354384,       !- Vertex 4 Xcoordinate
    169.567673698999,         !- Vertex 4 Ycoordinate
    16;                       !- Vertex 4 Zcoordinate

BUILDINGSURFACE:DETAILED,
    Block Poly_10_Transport Storey 3 Wall 0007,    !- Name
    Wall,                     !- Surface Type
    HSCWZ_Public&Industrial_2015_ExtWall,    !- Construction Name
    Block Poly_10_Transport Storey 3,    !- Zone Name
    ,                         !- Space Name
    Outdoors,                 !- Outside Boundary Condition
    ,                         !- Outside Boundary Condition Object
    SunExposed,               !- Sun Exposure
    WindExposed,              !- Wind Exposure
    autocalculate,            !- View Factor to Ground
    autocalculate,            !- Number of Vertices
    33.349419859354384,       !- Vertex 1 Xcoordinate
    169.567673698999,         !- Vertex 1 Ycoordinate
    16,                       !- Vertex 1 Zcoordinate
    33.349419859354384,       !- Vertex 2 Xcoordinate
    169.567673698999,         !- Vertex 2 Ycoordinate
    12,                       !- Vertex 2 Zcoordinate
    29.100573969306424,       !- Vertex 3 Xcoordinate
    105.32359098503366,       !- Vertex 3 Ycoordinate
    12,                       !- Vertex 3 Zcoordinate
    29.100573969306424,       !- Vertex 4 Xcoordinate
    105.32359098503366,       !- Vertex 4 Ycoordinate
    16;                       !- Vertex 4 Zcoordinate

BUILDINGSURFACE:DETAILED,
    Block Poly_10_Transport Storey 3 Wall 0008,    !- Name
    Wall,                     !- Surface Type
    HSCWZ_Public&Industrial_2015_ExtWall,    !- Construction Name
    Block Poly_10_Transport Storey 3,    !- Zone Name
    ,                         !- Space Name
    Outdoors,                 !- Outside Boundary Condition
    ,                         !- Outside Boundary Condition Object
    SunExposed,               !- Sun Exposure
    WindExposed,              !- Wind Exposure
    autocalculate,            !- View Factor to Ground
    autocalculate,            !- Number of Vertices
    29.100573969306424,       !- Vertex 1 Xcoordinate
    105.32359098503366,       !- Vertex 1 Ycoordinate
    16,                       !- Vertex 1 Zcoordinate
    29.100573969306424,       !- Vertex 2 Xcoordinate
    105.32359098503366,       !- Vertex 2 Ycoordinate
    12,                       !- Vertex 2 Zcoordinate
    19.74987050244817,        !- Vertex 3 Xcoordinate
    64.5454031988047,         !- Vertex 3 Ycoordinate
    12,                       !- Vertex 3 Zcoordinate
    19.74987050244817,        !- Vertex 4 Xcoordinate
    64.5454031988047,         !- Vertex 4 Ycoordinate
    16;                       !- Vertex 4 Zcoordinate

BUILDINGSURFACE:DETAILED,
    Block Poly_10_Transport Storey 3 Wall 0009,    !- Name
    Wall,                     !- Surface Type
    HSCWZ_Public&Industrial_2015_ExtWall,    !- Construction Name
    Block Poly_10_Transport Storey 3,    !- Zone Name
    ,                         !- Space Name
    Outdoors,                 !- Outside Boundary Condition
    ,                         !- Outside Boundary Condition Object
    SunExposed,               !- Sun Exposure
    WindExposed,              !- Wind Exposure
    autocalculate,            !- View Factor to Ground
    autocalculate,            !- Number of Vertices
    19.74987050244817,        !- Vertex 1 Xcoordinate
    64.5454031988047,         !- Vertex 1 Ycoordinate
    16,                       !- Vertex 1 Zcoordinate
    19.74987050244817,        !- Vertex 2 Xcoordinate
    64.5454031988047,         !- Vertex 2 Ycoordinate
    12,                       !- Vertex 2 Zcoordinate
    6.714302250882611,        !- Vertex 3 Xcoordinate
    26.147781824227422,       !- Vertex 3 Ycoordinate
    12,                       !- Vertex 3 Zcoordinate
    6.714302250882611,        !- Vertex 4 Xcoordinate
    26.147781824227422,       !- Vertex 4 Ycoordinate
    16;                       !- Vertex 4 Zcoordinate

BUILDINGSURFACE:DETAILED,
    Block Poly_10_Transport Storey 3 Wall 0010,    !- Name
    Wall,                     !- Surface Type
    HSCWZ_Public&Industrial_2015_ExtWall,    !- Construction Name
    Block Poly_10_Transport Storey 3,    !- Zone Name
    ,                         !- Space Name
    Outdoors,                 !- Outside Boundary Condition
    ,                         !- Outside Boundary Condition Object
    SunExposed,               !- Sun Exposure
    WindExposed,              !- Wind Exposure
    autocalculate,            !- View Factor to Ground
    autocalculate,            !- Number of Vertices
    6.714302250882611,        !- Vertex 1 Xcoordinate
    26.147781824227422,       !- Vertex 1 Ycoordinate
    16,                       !- Vertex 1 Zcoordinate
    6.714302250882611,        !- Vertex 2 Xcoordinate
    26.147781824227422,       !- Vertex 2 Ycoordinate
    12,                       !- Vertex 2 Zcoordinate
    11.74629984179046,        !- Vertex 3 Xcoordinate
    24.63506024889648,        !- Vertex 3 Ycoordinate
    12,                       !- Vertex 3 Zcoordinate
    11.74629984179046,        !- Vertex 4 Xcoordinate
    24.63506024889648,        !- Vertex 4 Ycoordinate
    16;                       !- Vertex 4 Zcoordinate

BUILDINGSURFACE:DETAILED,
    Block Poly_10_Transport Storey 3 Wall 0011,    !- Name
    Wall,                     !- Surface Type
    HSCWZ_Public&Industrial_2015_ExtWall,    !- Construction Name
    Block Poly_10_Transport Storey 3,    !- Zone Name
    ,                         !- Space Name
    Outdoors,                 !- Outside Boundary Condition
    ,                         !- Outside Boundary Condition Object
    SunExposed,               !- Sun Exposure
    WindExposed,              !- Wind Exposure
    autocalculate,            !- View Factor to Ground
    autocalculate,            !- Number of Vertices
    11.74629984179046,        !- Vertex 1 Xcoordinate
    24.63506024889648,        !- Vertex 1 Ycoordinate
    16,                       !- Vertex 1 Zcoordinate
    11.74629984179046,        !- Vertex 2 Xcoordinate
    24.63506024889648,        !- Vertex 2 Ycoordinate
    12,                       !- Vertex 2 Zcoordinate
    0,                        !- Vertex 3 Xcoordinate
    3.182198490481824,        !- Vertex 3 Ycoordinate
    12,                       !- Vertex 3 Zcoordinate
    0,                        !- Vertex 4 Xcoordinate
    3.182198490481824,        !- Vertex 4 Ycoordinate
    16;                       !- Vertex 4 Zcoordinate

BUILDINGSURFACE:DETAILED,
    Block Poly_10_Transport Storey 3 Wall 0012,    !- Name
    Wall,                     !- Surface Type
    HSCWZ_Public&Industrial_2015_ExtWall,    !- Construction Name
    Block Poly_10_Transport Storey 3,    !- Zone Name
    ,                         !- Space Name
    Outdoors,                 !- Outside Boundary Condition
    ,                         !- Outside Boundary Condition Object
    SunExposed,               !- Sun Exposure
    WindExposed,              !- Wind Exposure
    autocalculate,            !- View Factor to Ground
    autocalculate,            !- Number of Vertices
    0,                        !- Vertex 1 Xcoordinate
    3.182198490481824,        !- Vertex 1 Ycoordinate
    16,                       !- Vertex 1 Zcoordinate
    0,                        !- Vertex 2 Xcoordinate
    3.182198490481824,        !- Vertex 2 Ycoordinate
    12,                       !- Vertex 2 Zcoordinate
    5.48505680821836,         !- Vertex 3 Xcoordinate
    0,                        !- Vertex 3 Ycoordinate
    12,                       !- Vertex 3 Zcoordinate
    5.48505680821836,         !- Vertex 4 Xcoordinate
    0,                        !- Vertex 4 Ycoordinate
    16;                       !- Vertex 4 Zcoordinate

BUILDINGSURFACE:DETAILED,
    Block Poly_10_Transport Storey 3 Wall 0013,    !- Name
    Wall,                     !- Surface Type
    HSCWZ_Public&Industrial_2015_ExtWall,    !- Construction Name
    Block Poly_10_Transport Storey 3,    !- Zone Name
    ,                         !- Space Name
    Outdoors,                 !- Outside Boundary Condition
    ,                         !- Outside Boundary Condition Object
    SunExposed,               !- Sun Exposure
    WindExposed,              !- Wind Exposure
    autocalculate,            !- View Factor to Ground
    autocalculate,            !- Number of Vertices
    5.48505680821836,         !- Vertex 1 Xcoordinate
    0,                        !- Vertex 1 Ycoordinate
    16,                       !- Vertex 1 Zcoordinate
    5.48505680821836,         !- Vertex 2 Xcoordinate
    0,                        !- Vertex 2 Ycoordinate
    12,                       !- Vertex 2 Zcoordinate
    19.96852575952653,        !- Vertex 3 Xcoordinate
    12.76619346253574,        !- Vertex 3 Ycoordinate
    12,                       !- Vertex 3 Zcoordinate
    19.96852575952653,        !- Vertex 4 Xcoordinate
    12.76619346253574,        !- Vertex 4 Ycoordinate
    16;                       !- Vertex 4 Zcoordinate

BUILDINGSURFACE:DETAILED,
    Block Poly_10_Transport Storey 3 Wall 0014,    !- Name
    Wall,                     !- Surface Type
    HSCWZ_Public&Industrial_2015_ExtWall,    !- Construction Name
    Block Poly_10_Transport Storey 3,    !- Zone Name
    ,                         !- Space Name
    Outdoors,                 !- Outside Boundary Condition
    ,                         !- Outside Boundary Condition Object
    SunExposed,               !- Sun Exposure
    WindExposed,              !- Wind Exposure
    autocalculate,            !- View Factor to Ground
    autocalculate,            !- Number of Vertices
    19.96852575952653,        !- Vertex 1 Xcoordinate
    12.76619346253574,        !- Vertex 1 Ycoordinate
    16,                       !- Vertex 1 Zcoordinate
    19.96852575952653,        !- Vertex 2 Xcoordinate
    12.76619346253574,        !- Vertex 2 Ycoordinate
    12,                       !- Vertex 2 Zcoordinate
    43.61737599730259,        !- Vertex 3 Xcoordinate
    39.81539847282693,        !- Vertex 3 Ycoordinate
    12,                       !- Vertex 3 Zcoordinate
    43.61737599730259,        !- Vertex 4 Xcoordinate
    39.81539847282693,        !- Vertex 4 Ycoordinate
    16;                       !- Vertex 4 Zcoordinate

BUILDINGSURFACE:DETAILED,
    Block Poly_10_Transport Storey 3 Wall 0015,    !- Name
    Wall,                     !- Surface Type
    HSCWZ_Public&Industrial_2015_ExtWall,    !- Construction Name
    Block Poly_10_Transport Storey 3,    !- Zone Name
    ,                         !- Space Name
    Outdoors,                 !- Outside Boundary Condition
    ,                         !- Outside Boundary Condition Object
    SunExposed,               !- Sun Exposure
    WindExposed,              !- Wind Exposure
    autocalculate,            !- View Factor to Ground
    autocalculate,            !- Number of Vertices
    43.61737599730259,        !- Vertex 1 Xcoordinate
    39.81539847282693,        !- Vertex 1 Ycoordinate
    16,                       !- Vertex 1 Zcoordinate
    43.61737599730259,        !- Vertex 2 Xcoordinate
    39.81539847282693,        !- Vertex 2 Ycoordinate
    12,                       !- Vertex 2 Zcoordinate
    52.13433890312445,        !- Vertex 3 Xcoordinate
    55.43803394399583,        !- Vertex 3 Ycoordinate
    12,                       !- Vertex 3 Zcoordinate
    52.13433890312445,        !- Vertex 4 Xcoordinate
    55.43803394399583,        !- Vertex 4 Ycoordinate
    16;                       !- Vertex 4 Zcoordinate

BUILDINGSURFACE:DETAILED,
    Block Poly_10_Transport Storey 3 Wall 0016,    !- Name
    Wall,                     !- Surface Type
    HSCWZ_Public&Industrial_2015_ExtWall,    !- Construction Name
    Block Poly_10_Transport Storey 3,    !- Zone Name
    ,                         !- Space Name
    Outdoors,                 !- Outside Boundary Condition
    ,                         !- Outside Boundary Condition Object
    SunExposed,               !- Sun Exposure
    WindExposed,              !- Wind Exposure
    autocalculate,            !- View Factor to Ground
    autocalculate,            !- Number of Vertices
    52.13433890312445,        !- Vertex 1 Xcoordinate
    55.43803394399583,        !- Vertex 1 Ycoordinate
    16,                       !- Vertex 1 Zcoordinate
    52.13433890312445,        !- Vertex 2 Xcoordinate
    55.43803394399583,        !- Vertex 2 Ycoordinate
    12,                       !- Vertex 2 Zcoordinate
    58.73998370452318,        !- Vertex 3 Xcoordinate
    70.75518421921879,        !- Vertex 3 Ycoordinate
    12,                       !- Vertex 3 Zcoordinate
    58.73998370452318,        !- Vertex 4 Xcoordinate
    70.75518421921879,        !- Vertex 4 Ycoordinate
    16;                       !- Vertex 4 Zcoordinate

BUILDINGSURFACE:DETAILED,
    Block Poly_10_Transport Storey 3 Wall 0017,    !- Name
    Wall,                     !- Surface Type
    HSCWZ_Public&Industrial_2015_ExtWall,    !- Construction Name
    Block Poly_10_Transport Storey 3,    !- Zone Name
    ,                         !- Space Name
    Outdoors,                 !- Outside Boundary Condition
    ,                         !- Outside Boundary Condition Object
    SunExposed,               !- Sun Exposure
    WindExposed,              !- Wind Exposure
    autocalculate,            !- View Factor to Ground
    autocalculate,            !- Number of Vertices
    58.73998370452318,        !- Vertex 1 Xcoordinate
    70.75518421921879,        !- Vertex 1 Ycoordinate
    16,                       !- Vertex 1 Zcoordinate
    58.73998370452318,        !- Vertex 2 Xcoordinate
    70.75518421921879,        !- Vertex 2 Ycoordinate
    12,                       !- Vertex 2 Zcoordinate
    62.13431701203808,        !- Vertex 3 Xcoordinate
    88.2244211435318,         !- Vertex 3 Ycoordinate
    12,                       !- Vertex 3 Zcoordinate
    62.13431701203808,        !- Vertex 4 Xcoordinate
    88.2244211435318,         !- Vertex 4 Ycoordinate
    16;                       !- Vertex 4 Zcoordinate

BUILDINGSURFACE:DETAILED,
    Block Poly_10_Transport Storey 3 Wall 0018,    !- Name
    Wall,                     !- Surface Type
    HSCWZ_Public&Industrial_2015_ExtWall,    !- Construction Name
    Block Poly_10_Transport Storey 3,    !- Zone Name
    ,                         !- Space Name
    Outdoors,                 !- Outside Boundary Condition
    ,                         !- Outside Boundary Condition Object
    SunExposed,               !- Sun Exposure
    WindExposed,              !- Wind Exposure
    autocalculate,            !- View Factor to Ground
    autocalculate,            !- Number of Vertices
    62.13431701203808,        !- Vertex 1 Xcoordinate
    88.2244211435318,         !- Vertex 1 Ycoordinate
    16,                       !- Vertex 1 Zcoordinate
    62.13431701203808,        !- Vertex 2 Xcoordinate
    88.2244211435318,         !- Vertex 2 Ycoordinate
    12,                       !- Vertex 2 Zcoordinate
    64.09399570594542,        !- Vertex 3 Xcoordinate
    105.38140459405258,       !- Vertex 3 Ycoordinate
    12,                       !- Vertex 3 Zcoordinate
    64.09399570594542,        !- Vertex 4 Xcoordinate
    105.38140459405258,       !- Vertex 4 Ycoordinate
    16;                       !- Vertex 4 Zcoordinate

BUILDINGSURFACE:DETAILED,
    Block Poly_10_Transport Storey 3 Wall 0019,    !- Name
    Wall,                     !- Surface Type
    HSCWZ_Public&Industrial_2015_ExtWall,    !- Construction Name
    Block Poly_10_Transport Storey 3,    !- Zone Name
    ,                         !- Space Name
    Outdoors,                 !- Outside Boundary Condition
    ,                         !- Outside Boundary Condition Object
    SunExposed,               !- Sun Exposure
    WindExposed,              !- Wind Exposure
    autocalculate,            !- View Factor to Ground
    autocalculate,            !- Number of Vertices
    64.09399570594542,        !- Vertex 1 Xcoordinate
    105.38140459405258,       !- Vertex 1 Ycoordinate
    16,                       !- Vertex 1 Zcoordinate
    64.09399570594542,        !- Vertex 2 Xcoordinate
    105.38140459405258,       !- Vertex 2 Ycoordinate
    12,                       !- Vertex 2 Zcoordinate
    67.36129693506518,        !- Vertex 3 Xcoordinate
    100.45678756013513,       !- Vertex 3 Ycoordinate
    12,                       !- Vertex 3 Zcoordinate
    67.36129693506518,        !- Vertex 4 Xcoordinate
    100.45678756013513,       !- Vertex 4 Ycoordinate
    16;                       !- Vertex 4 Zcoordinate

BUILDINGSURFACE:DETAILED,
    Block Poly_10_Transport Storey 3 Wall 0020,    !- Name
    Wall,                     !- Surface Type
    HSCWZ_Public&Industrial_2015_ExtWall,    !- Construction Name
    Block Poly_10_Transport Storey 3,    !- Zone Name
    ,                         !- Space Name
    Outdoors,                 !- Outside Boundary Condition
    ,                         !- Outside Boundary Condition Object
    SunExposed,               !- Sun Exposure
    WindExposed,              !- Wind Exposure
    autocalculate,            !- View Factor to Ground
    autocalculate,            !- Number of Vertices
    67.36129693506518,        !- Vertex 1 Xcoordinate
    100.45678756013513,       !- Vertex 1 Ycoordinate
    16,                       !- Vertex 1 Zcoordinate
    67.36129693506518,        !- Vertex 2 Xcoordinate
    100.45678756013513,       !- Vertex 2 Ycoordinate
    12,                       !- Vertex 2 Zcoordinate
    70.38193054415751,        !- Vertex 3 Xcoordinate
    98.3074109419249,         !- Vertex 3 Ycoordinate
    12,                       !- Vertex 3 Zcoordinate
    70.38193054415751,        !- Vertex 4 Xcoordinate
    98.3074109419249,         !- Vertex 4 Ycoordinate
    16;                       !- Vertex 4 Zcoordinate

BUILDINGSURFACE:DETAILED,
    Block Poly_10_Transport Storey 3 Wall 0021,    !- Name
    Wall,                     !- Surface Type
    HSCWZ_Public&Industrial_2015_ExtWall,    !- Construction Name
    Block Poly_10_Transport Storey 3,    !- Zone Name
    ,                         !- Space Name
    Outdoors,                 !- Outside Boundary Condition
    ,                         !- Outside Boundary Condition Object
    SunExposed,               !- Sun Exposure
    WindExposed,              !- Wind Exposure
    autocalculate,            !- View Factor to Ground
    autocalculate,            !- Number of Vertices
    70.38193054415751,        !- Vertex 1 Xcoordinate
    98.3074109419249,         !- Vertex 1 Ycoordinate
    16,                       !- Vertex 1 Zcoordinate
    70.38193054415751,        !- Vertex 2 Xcoordinate
    98.3074109419249,         !- Vertex 2 Ycoordinate
    12,                       !- Vertex 2 Zcoordinate
    79.63351727463305,        !- Vertex 3 Xcoordinate
    98.50877078669146,        !- Vertex 3 Ycoordinate
    12,                       !- Vertex 3 Zcoordinate
    79.63351727463305,        !- Vertex 4 Xcoordinate
    98.50877078669146,        !- Vertex 4 Ycoordinate
    16;                       !- Vertex 4 Zcoordinate

BUILDINGSURFACE:DETAILED,
    Block Poly_10_Transport Storey 3 Wall 0022,    !- Name
    Wall,                     !- Surface Type
    HSCWZ_Public&Industrial_2015_ExtWall,    !- Construction Name
    Block Poly_10_Transport Storey 3,    !- Zone Name
    ,                         !- Space Name
    Outdoors,                 !- Outside Boundary Condition
    ,                         !- Outside Boundary Condition Object
    SunExposed,               !- Sun Exposure
    WindExposed,              !- Wind Exposure
    autocalculate,            !- View Factor to Ground
    autocalculate,            !- Number of Vertices
    79.63351727463305,        !- Vertex 1 Xcoordinate
    98.50877078669146,        !- Vertex 1 Ycoordinate
    16,                       !- Vertex 1 Zcoordinate
    79.63351727463305,        !- Vertex 2 Xcoordinate
    98.50877078669146,        !- Vertex 2 Ycoordinate
    12,                       !- Vertex 2 Zcoordinate
    84.16742233437253,        !- Vertex 3 Xcoordinate
    102.2140186545439,        !- Vertex 3 Ycoordinate
    12,                       !- Vertex 3 Zcoordinate
    84.16742233437253,        !- Vertex 4 Xcoordinate
    102.2140186545439,        !- Vertex 4 Ycoordinate
    16;                       !- Vertex 4 Zcoordinate

BUILDINGSURFACE:DETAILED,
    Block Poly_10_Transport Storey 3 Wall 0023,    !- Name
    Wall,                     !- Surface Type
    HSCWZ_Public&Industrial_2015_ExtWall,    !- Construction Name
    Block Poly_10_Transport Storey 3,    !- Zone Name
    ,                         !- Space Name
    Outdoors,                 !- Outside Boundary Condition
    ,                         !- Outside Boundary Condition Object
    SunExposed,               !- Sun Exposure
    WindExposed,              !- Wind Exposure
    autocalculate,            !- View Factor to Ground
    autocalculate,            !- Number of Vertices
    84.16742233437253,        !- Vertex 1 Xcoordinate
    102.2140186545439,        !- Vertex 1 Ycoordinate
    16,                       !- Vertex 1 Zcoordinate
    84.16742233437253,        !- Vertex 2 Xcoordinate
    102.2140186545439,        !- Vertex 2 Ycoordinate
    12,                       !- Vertex 2 Zcoordinate
    86.42130297445692,        !- Vertex 3 Xcoordinate
    106.5059594810009,        !- Vertex 3 Ycoordinate
    12,                       !- Vertex 3 Zcoordinate
    86.42130297445692,        !- Vertex 4 Xcoordinate
    106.5059594810009,        !- Vertex 4 Ycoordinate
    16;                       !- Vertex 4 Zcoordinate

BUILDINGSURFACE:DETAILED,
    Block Poly_10_Transport Storey 3 Wall 0024,    !- Name
    Wall,                     !- Surface Type
    HSCWZ_Public&Industrial_2015_ExtWall,    !- Construction Name
    Block Poly_10_Transport Storey 3,    !- Zone Name
    ,                         !- Space Name
    Outdoors,                 !- Outside Boundary Condition
    ,                         !- Outside Boundary Condition Object
    SunExposed,               !- Sun Exposure
    WindExposed,              !- Wind Exposure
    autocalculate,            !- View Factor to Ground
    autocalculate,            !- Number of Vertices
    86.42130297445692,        !- Vertex 1 Xcoordinate
    106.5059594810009,        !- Vertex 1 Ycoordinate
    16,                       !- Vertex 1 Zcoordinate
    86.42130297445692,        !- Vertex 2 Xcoordinate
    106.5059594810009,        !- Vertex 2 Ycoordinate
    12,                       !- Vertex 2 Zcoordinate
    87.41448799846694,        !- Vertex 3 Xcoordinate
    116.02665463322774,       !- Vertex 3 Ycoordinate
    12,                       !- Vertex 3 Zcoordinate
    87.41448799846694,        !- Vertex 4 Xcoordinate
    116.02665463322774,       !- Vertex 4 Ycoordinate
    16;                       !- Vertex 4 Zcoordinate

BUILDINGSURFACE:DETAILED,
    Block Poly_10_Transport Storey 3 Wall 0025,    !- Name
    Wall,                     !- Surface Type
    HSCWZ_Public&Industrial_2015_ExtWall,    !- Construction Name
    Block Poly_10_Transport Storey 3,    !- Zone Name
    ,                         !- Space Name
    Outdoors,                 !- Outside Boundary Condition
    ,                         !- Outside Boundary Condition Object
    SunExposed,               !- Sun Exposure
    WindExposed,              !- Wind Exposure
    autocalculate,            !- View Factor to Ground
    autocalculate,            !- Number of Vertices
    87.41448799846694,        !- Vertex 1 Xcoordinate
    116.02665463322774,       !- Vertex 1 Ycoordinate
    16,                       !- Vertex 1 Zcoordinate
    87.41448799846694,        !- Vertex 2 Xcoordinate
    116.02665463322774,       !- Vertex 2 Ycoordinate
    12,                       !- Vertex 2 Zcoordinate
    85.75263154995628,        !- Vertex 3 Xcoordinate
    126.5828396230936,        !- Vertex 3 Ycoordinate
    12,                       !- Vertex 3 Zcoordinate
    85.75263154995628,        !- Vertex 4 Xcoordinate
    126.5828396230936,        !- Vertex 4 Ycoordinate
    16;                       !- Vertex 4 Zcoordinate

BUILDINGSURFACE:DETAILED,
    Block Poly_10_Transport Storey 3 Wall 0026,    !- Name
    Wall,                     !- Surface Type
    HSCWZ_Public&Industrial_2015_ExtWall,    !- Construction Name
    Block Poly_10_Transport Storey 3,    !- Zone Name
    ,                         !- Space Name
    Outdoors,                 !- Outside Boundary Condition
    ,                         !- Outside Boundary Condition Object
    SunExposed,               !- Sun Exposure
    WindExposed,              !- Wind Exposure
    autocalculate,            !- View Factor to Ground
    autocalculate,            !- Number of Vertices
    85.75263154995628,        !- Vertex 1 Xcoordinate
    126.5828396230936,        !- Vertex 1 Ycoordinate
    16,                       !- Vertex 1 Zcoordinate
    85.75263154995628,        !- Vertex 2 Xcoordinate
    126.5828396230936,        !- Vertex 2 Ycoordinate
    12,                       !- Vertex 2 Zcoordinate
    82.37585028866306,        !- Vertex 3 Xcoordinate
    130.51117793750018,       !- Vertex 3 Ycoordinate
    12,                       !- Vertex 3 Zcoordinate
    82.37585028866306,        !- Vertex 4 Xcoordinate
    130.51117793750018,       !- Vertex 4 Ycoordinate
    16;                       !- Vertex 4 Zcoordinate

BUILDINGSURFACE:DETAILED,
    Block Poly_10_Transport Storey 3 Wall 0027,    !- Name
    Wall,                     !- Surface Type
    HSCWZ_Public&Industrial_2015_ExtWall,    !- Construction Name
    Block Poly_10_Transport Storey 3,    !- Zone Name
    ,                         !- Space Name
    Outdoors,                 !- Outside Boundary Condition
    ,                         !- Outside Boundary Condition Object
    SunExposed,               !- Sun Exposure
    WindExposed,              !- Wind Exposure
    autocalculate,            !- View Factor to Ground
    autocalculate,            !- Number of Vertices
    82.37585028866306,        !- Vertex 1 Xcoordinate
    130.51117793750018,       !- Vertex 1 Ycoordinate
    16,                       !- Vertex 1 Zcoordinate
    82.37585028866306,        !- Vertex 2 Xcoordinate
    130.51117793750018,       !- Vertex 2 Ycoordinate
    12,                       !- Vertex 2 Zcoordinate
    79.72867442009738,        !- Vertex 3 Xcoordinate
    132.1009056251496,        !- Vertex 3 Ycoordinate
    12,                       !- Vertex 3 Zcoordinate
    79.72867442009738,        !- Vertex 4 Xcoordinate
    132.1009056251496,        !- Vertex 4 Ycoordinate
    16;                       !- Vertex 4 Zcoordinate

BUILDINGSURFACE:DETAILED,
    Block Poly_10_Transport Storey 3 Wall 0028,    !- Name
    Wall,                     !- Surface Type
    HSCWZ_Public&Industrial_2015_ExtWall,    !- Construction Name
    Block Poly_10_Transport Storey 3,    !- Zone Name
    ,                         !- Space Name
    Outdoors,                 !- Outside Boundary Condition
    ,                         !- Outside Boundary Condition Object
    SunExposed,               !- Sun Exposure
    WindExposed,              !- Wind Exposure
    autocalculate,            !- View Factor to Ground
    autocalculate,            !- Number of Vertices
    79.72867442009738,        !- Vertex 1 Xcoordinate
    132.1009056251496,        !- Vertex 1 Ycoordinate
    16,                       !- Vertex 1 Zcoordinate
    79.72867442009738,        !- Vertex 2 Xcoordinate
    132.1009056251496,        !- Vertex 2 Ycoordinate
    12,                       !- Vertex 2 Zcoordinate
    72.94464333995711,        !- Vertex 3 Xcoordinate
    131.0884525887668,        !- Vertex 3 Ycoordinate
    12,                       !- Vertex 3 Zcoordinate
    72.94464333995711,        !- Vertex 4 Xcoordinate
    131.0884525887668,        !- Vertex 4 Ycoordinate
    16;                       !- Vertex 4 Zcoordinate

BUILDINGSURFACE:DETAILED,
    Block Poly_10_Transport Storey 3 Wall 0029,    !- Name
    Wall,                     !- Surface Type
    HSCWZ_Public&Industrial_2015_ExtWall,    !- Construction Name
    Block Poly_10_Transport Storey 3,    !- Zone Name
    ,                         !- Space Name
    Outdoors,                 !- Outside Boundary Condition
    ,                         !- Outside Boundary Condition Object
    SunExposed,               !- Sun Exposure
    WindExposed,              !- Wind Exposure
    autocalculate,            !- View Factor to Ground
    autocalculate,            !- Number of Vertices
    72.94464333995711,        !- Vertex 1 Xcoordinate
    131.0884525887668,        !- Vertex 1 Ycoordinate
    16,                       !- Vertex 1 Zcoordinate
    72.94464333995711,        !- Vertex 2 Xcoordinate
    131.0884525887668,        !- Vertex 2 Ycoordinate
    12,                       !- Vertex 2 Zcoordinate
    68.41074579709675,        !- Vertex 3 Xcoordinate
    127.38320972304793,       !- Vertex 3 Ycoordinate
    12,                       !- Vertex 3 Zcoordinate
    68.41074579709675,        !- Vertex 4 Xcoordinate
    127.38320972304793,       !- Vertex 4 Ycoordinate
    16;                       !- Vertex 4 Zcoordinate

BUILDINGSURFACE:DETAILED,
    Block Poly_10_Transport Storey 3 Wall 0030,    !- Name
    Wall,                     !- Surface Type
    HSCWZ_Public&Industrial_2015_ExtWall,    !- Construction Name
    Block Poly_10_Transport Storey 3,    !- Zone Name
    ,                         !- Space Name
    Outdoors,                 !- Outside Boundary Condition
    ,                         !- Outside Boundary Condition Object
    SunExposed,               !- Sun Exposure
    WindExposed,              !- Wind Exposure
    autocalculate,            !- View Factor to Ground
    autocalculate,            !- Number of Vertices
    68.41074579709675,        !- Vertex 1 Xcoordinate
    127.38320972304793,       !- Vertex 1 Ycoordinate
    16,                       !- Vertex 1 Zcoordinate
    68.41074579709675,        !- Vertex 2 Xcoordinate
    127.38320972304793,       !- Vertex 2 Ycoordinate
    12,                       !- Vertex 2 Zcoordinate
    66.26634374901187,        !- Vertex 3 Xcoordinate
    124.0875455737114,        !- Vertex 3 Ycoordinate
    12,                       !- Vertex 3 Zcoordinate
    66.26634374901187,        !- Vertex 4 Xcoordinate
    124.0875455737114,        !- Vertex 4 Ycoordinate
    16;                       !- Vertex 4 Zcoordinate

BUILDINGSURFACE:DETAILED,
    Block Poly_10_Transport Storey 3 Wall 0031,    !- Name
    Wall,                     !- Surface Type
    HSCWZ_Public&Industrial_2015_ExtWall,    !- Construction Name
    Block Poly_10_Transport Storey 3,    !- Zone Name
    ,                         !- Space Name
    Outdoors,                 !- Outside Boundary Condition
    ,                         !- Outside Boundary Condition Object
    SunExposed,               !- Sun Exposure
    WindExposed,              !- Wind Exposure
    autocalculate,            !- View Factor to Ground
    autocalculate,            !- Number of Vertices
    66.26634374901187,        !- Vertex 1 Xcoordinate
    124.0875455737114,        !- Vertex 1 Ycoordinate
    16,                       !- Vertex 1 Zcoordinate
    66.26634374901187,        !- Vertex 2 Xcoordinate
    124.0875455737114,        !- Vertex 2 Ycoordinate
    12,                       !- Vertex 2 Zcoordinate
    66.81060939311283,        !- Vertex 3 Xcoordinate
    128.8472163812257,        !- Vertex 3 Ycoordinate
    12,                       !- Vertex 3 Zcoordinate
    66.81060939311283,        !- Vertex 4 Xcoordinate
    128.8472163812257,        !- Vertex 4 Ycoordinate
    16;                       !- Vertex 4 Zcoordinate

BUILDINGSURFACE:DETAILED,
    Block Poly_10_Transport Storey 4 Wall 0001,    !- Name
    Wall,                     !- Surface Type
    HSCWZ_Public&Industrial_2015_ExtWall,    !- Construction Name
    Block Poly_10_Transport Storey 4,    !- Zone Name
    ,                         !- Space Name
    Outdoors,                 !- Outside Boundary Condition
    ,                         !- Outside Boundary Condition Object
    SunExposed,               !- Sun Exposure
    WindExposed,              !- Wind Exposure
    autocalculate,            !- View Factor to Ground
    autocalculate,            !- Number of Vertices
    66.81060939311283,        !- Vertex 1 Xcoordinate
    128.8472163812257,        !- Vertex 1 Ycoordinate
    20,                       !- Vertex 1 Zcoordinate
    66.81060939311283,        !- Vertex 2 Xcoordinate
    128.8472163812257,        !- Vertex 2 Ycoordinate
    16,                       !- Vertex 2 Zcoordinate
    63.54513706220314,        !- Vertex 3 Xcoordinate
    154.06094518117607,       !- Vertex 3 Ycoordinate
    16,                       !- Vertex 3 Zcoordinate
    63.54513706220314,        !- Vertex 4 Xcoordinate
    154.06094518117607,       !- Vertex 4 Ycoordinate
    20;                       !- Vertex 4 Zcoordinate

BUILDINGSURFACE:DETAILED,
    Block Poly_10_Transport Storey 4 Wall 0002,    !- Name
    Wall,                     !- Surface Type
    HSCWZ_Public&Industrial_2015_ExtWall,    !- Construction Name
    Block Poly_10_Transport Storey 4,    !- Zone Name
    ,                         !- Space Name
    Outdoors,                 !- Outside Boundary Condition
    ,                         !- Outside Boundary Condition Object
    SunExposed,               !- Sun Exposure
    WindExposed,              !- Wind Exposure
    autocalculate,            !- View Factor to Ground
    autocalculate,            !- Number of Vertices
    63.54513706220314,        !- Vertex 1 Xcoordinate
    154.06094518117607,       !- Vertex 1 Ycoordinate
    20,                       !- Vertex 1 Zcoordinate
    63.54513706220314,        !- Vertex 2 Xcoordinate
    154.06094518117607,       !- Vertex 2 Ycoordinate
    16,                       !- Vertex 2 Zcoordinate
    60.448675296793226,       !- Vertex 3 Xcoordinate
    164.30488186795264,       !- Vertex 3 Ycoordinate
    16,                       !- Vertex 3 Zcoordinate
    60.448675296793226,       !- Vertex 4 Xcoordinate
    164.30488186795264,       !- Vertex 4 Ycoordinate
    20;                       !- Vertex 4 Zcoordinate

BUILDINGSURFACE:DETAILED,
    Block Poly_10_Transport Storey 4 Wall 0003,    !- Name
    Wall,                     !- Surface Type
    HSCWZ_Public&Industrial_2015_ExtWall,    !- Construction Name
    Block Poly_10_Transport Storey 4,    !- Zone Name
    ,                         !- Space Name
    Outdoors,                 !- Outside Boundary Condition
    ,                         !- Outside Boundary Condition Object
    SunExposed,               !- Sun Exposure
    WindExposed,              !- Wind Exposure
    autocalculate,            !- View Factor to Ground
    autocalculate,            !- Number of Vertices
    60.448675296793226,       !- Vertex 1 Xcoordinate
    164.30488186795264,       !- Vertex 1 Ycoordinate
    20,                       !- Vertex 1 Zcoordinate
    60.448675296793226,       !- Vertex 2 Xcoordinate
    164.30488186795264,       !- Vertex 2 Ycoordinate
    16,                       !- Vertex 2 Zcoordinate
    55.934884526301175,       !- Vertex 3 Xcoordinate
    175.45588695583865,       !- Vertex 3 Ycoordinate
    16,                       !- Vertex 3 Zcoordinate
    55.934884526301175,       !- Vertex 4 Xcoordinate
    175.45588695583865,       !- Vertex 4 Ycoordinate
    20;                       !- Vertex 4 Zcoordinate

BUILDINGSURFACE:DETAILED,
    Block Poly_10_Transport Storey 4 Wall 0004,    !- Name
    Wall,                     !- Surface Type
    HSCWZ_Public&Industrial_2015_ExtWall,    !- Construction Name
    Block Poly_10_Transport Storey 4,    !- Zone Name
    ,                         !- Space Name
    Outdoors,                 !- Outside Boundary Condition
    ,                         !- Outside Boundary Condition Object
    SunExposed,               !- Sun Exposure
    WindExposed,              !- Wind Exposure
    autocalculate,            !- View Factor to Ground
    autocalculate,            !- Number of Vertices
    55.934884526301175,       !- Vertex 1 Xcoordinate
    175.45588695583865,       !- Vertex 1 Ycoordinate
    20,                       !- Vertex 1 Zcoordinate
    55.934884526301175,       !- Vertex 2 Xcoordinate
    175.45588695583865,       !- Vertex 2 Ycoordinate
    16,                       !- Vertex 2 Zcoordinate
    39.0618533535162,         !- Vertex 3 Xcoordinate
    175.69530907273293,       !- Vertex 3 Ycoordinate
    16,                       !- Vertex 3 Zcoordinate
    39.0618533535162,         !- Vertex 4 Xcoordinate
    175.69530907273293,       !- Vertex 4 Ycoordinate
    20;                       !- Vertex 4 Zcoordinate

BUILDINGSURFACE:DETAILED,
    Block Poly_10_Transport Storey 4 Wall 0005,    !- Name
    Wall,                     !- Surface Type
    HSCWZ_Public&Industrial_2015_ExtWall,    !- Construction Name
    Block Poly_10_Transport Storey 4,    !- Zone Name
    ,                         !- Space Name
    Outdoors,                 !- Outside Boundary Condition
    ,                         !- Outside Boundary Condition Object
    SunExposed,               !- Sun Exposure
    WindExposed,              !- Wind Exposure
    autocalculate,            !- View Factor to Ground
    autocalculate,            !- Number of Vertices
    39.0618533535162,         !- Vertex 1 Xcoordinate
    175.69530907273293,       !- Vertex 1 Ycoordinate
    20,                       !- Vertex 1 Zcoordinate
    39.0618533535162,         !- Vertex 2 Xcoordinate
    175.69530907273293,       !- Vertex 2 Ycoordinate
    16,                       !- Vertex 2 Zcoordinate
    38.42067523446167,        !- Vertex 3 Xcoordinate
    170.8261444461532,        !- Vertex 3 Ycoordinate
    16,                       !- Vertex 3 Zcoordinate
    38.42067523446167,        !- Vertex 4 Xcoordinate
    170.8261444461532,        !- Vertex 4 Ycoordinate
    20;                       !- Vertex 4 Zcoordinate

BUILDINGSURFACE:DETAILED,
    Block Poly_10_Transport Storey 4 Wall 0006,    !- Name
    Wall,                     !- Surface Type
    HSCWZ_Public&Industrial_2015_ExtWall,    !- Construction Name
    Block Poly_10_Transport Storey 4,    !- Zone Name
    ,                         !- Space Name
    Outdoors,                 !- Outside Boundary Condition
    ,                         !- Outside Boundary Condition Object
    SunExposed,               !- Sun Exposure
    WindExposed,              !- Wind Exposure
    autocalculate,            !- View Factor to Ground
    autocalculate,            !- Number of Vertices
    38.42067523446167,        !- Vertex 1 Xcoordinate
    170.8261444461532,        !- Vertex 1 Ycoordinate
    20,                       !- Vertex 1 Zcoordinate
    38.42067523446167,        !- Vertex 2 Xcoordinate
    170.8261444461532,        !- Vertex 2 Ycoordinate
    16,                       !- Vertex 2 Zcoordinate
    33.349419859354384,       !- Vertex 3 Xcoordinate
    169.567673698999,         !- Vertex 3 Ycoordinate
    16,                       !- Vertex 3 Zcoordinate
    33.349419859354384,       !- Vertex 4 Xcoordinate
    169.567673698999,         !- Vertex 4 Ycoordinate
    20;                       !- Vertex 4 Zcoordinate

BUILDINGSURFACE:DETAILED,
    Block Poly_10_Transport Storey 4 Wall 0007,    !- Name
    Wall,                     !- Surface Type
    HSCWZ_Public&Industrial_2015_ExtWall,    !- Construction Name
    Block Poly_10_Transport Storey 4,    !- Zone Name
    ,                         !- Space Name
    Outdoors,                 !- Outside Boundary Condition
    ,                         !- Outside Boundary Condition Object
    SunExposed,               !- Sun Exposure
    WindExposed,              !- Wind Exposure
    autocalculate,            !- View Factor to Ground
    autocalculate,            !- Number of Vertices
    33.349419859354384,       !- Vertex 1 Xcoordinate
    169.567673698999,         !- Vertex 1 Ycoordinate
    20,                       !- Vertex 1 Zcoordinate
    33.349419859354384,       !- Vertex 2 Xcoordinate
    169.567673698999,         !- Vertex 2 Ycoordinate
    16,                       !- Vertex 2 Zcoordinate
    29.100573969306424,       !- Vertex 3 Xcoordinate
    105.32359098503366,       !- Vertex 3 Ycoordinate
    16,                       !- Vertex 3 Zcoordinate
    29.100573969306424,       !- Vertex 4 Xcoordinate
    105.32359098503366,       !- Vertex 4 Ycoordinate
    20;                       !- Vertex 4 Zcoordinate

BUILDINGSURFACE:DETAILED,
    Block Poly_10_Transport Storey 4 Wall 0008,    !- Name
    Wall,                     !- Surface Type
    HSCWZ_Public&Industrial_2015_ExtWall,    !- Construction Name
    Block Poly_10_Transport Storey 4,    !- Zone Name
    ,                         !- Space Name
    Outdoors,                 !- Outside Boundary Condition
    ,                         !- Outside Boundary Condition Object
    SunExposed,               !- Sun Exposure
    WindExposed,              !- Wind Exposure
    autocalculate,            !- View Factor to Ground
    autocalculate,            !- Number of Vertices
    29.100573969306424,       !- Vertex 1 Xcoordinate
    105.32359098503366,       !- Vertex 1 Ycoordinate
    20,                       !- Vertex 1 Zcoordinate
    29.100573969306424,       !- Vertex 2 Xcoordinate
    105.32359098503366,       !- Vertex 2 Ycoordinate
    16,                       !- Vertex 2 Zcoordinate
    19.74987050244817,        !- Vertex 3 Xcoordinate
    64.5454031988047,         !- Vertex 3 Ycoordinate
    16,                       !- Vertex 3 Zcoordinate
    19.74987050244817,        !- Vertex 4 Xcoordinate
    64.5454031988047,         !- Vertex 4 Ycoordinate
    20;                       !- Vertex 4 Zcoordinate

BUILDINGSURFACE:DETAILED,
    Block Poly_10_Transport Storey 4 Wall 0009,    !- Name
    Wall,                     !- Surface Type
    HSCWZ_Public&Industrial_2015_ExtWall,    !- Construction Name
    Block Poly_10_Transport Storey 4,    !- Zone Name
    ,                         !- Space Name
    Outdoors,                 !- Outside Boundary Condition
    ,                         !- Outside Boundary Condition Object
    SunExposed,               !- Sun Exposure
    WindExposed,              !- Wind Exposure
    autocalculate,            !- View Factor to Ground
    autocalculate,            !- Number of Vertices
    19.74987050244817,        !- Vertex 1 Xcoordinate
    64.5454031988047,         !- Vertex 1 Ycoordinate
    20,                       !- Vertex 1 Zcoordinate
    19.74987050244817,        !- Vertex 2 Xcoordinate
    64.5454031988047,         !- Vertex 2 Ycoordinate
    16,                       !- Vertex 2 Zcoordinate
    6.714302250882611,        !- Vertex 3 Xcoordinate
    26.147781824227422,       !- Vertex 3 Ycoordinate
    16,                       !- Vertex 3 Zcoordinate
    6.714302250882611,        !- Vertex 4 Xcoordinate
    26.147781824227422,       !- Vertex 4 Ycoordinate
    20;                       !- Vertex 4 Zcoordinate

BUILDINGSURFACE:DETAILED,
    Block Poly_10_Transport Storey 4 Wall 0010,    !- Name
    Wall,                     !- Surface Type
    HSCWZ_Public&Industrial_2015_ExtWall,    !- Construction Name
    Block Poly_10_Transport Storey 4,    !- Zone Name
    ,                         !- Space Name
    Outdoors,                 !- Outside Boundary Condition
    ,                         !- Outside Boundary Condition Object
    SunExposed,               !- Sun Exposure
    WindExposed,              !- Wind Exposure
    autocalculate,            !- View Factor to Ground
    autocalculate,            !- Number of Vertices
    6.714302250882611,        !- Vertex 1 Xcoordinate
    26.147781824227422,       !- Vertex 1 Ycoordinate
    20,                       !- Vertex 1 Zcoordinate
    6.714302250882611,        !- Vertex 2 Xcoordinate
    26.147781824227422,       !- Vertex 2 Ycoordinate
    16,                       !- Vertex 2 Zcoordinate
    11.74629984179046,        !- Vertex 3 Xcoordinate
    24.63506024889648,        !- Vertex 3 Ycoordinate
    16,                       !- Vertex 3 Zcoordinate
    11.74629984179046,        !- Vertex 4 Xcoordinate
    24.63506024889648,        !- Vertex 4 Ycoordinate
    20;                       !- Vertex 4 Zcoordinate

BUILDINGSURFACE:DETAILED,
    Block Poly_10_Transport Storey 4 Wall 0011,    !- Name
    Wall,                     !- Surface Type
    HSCWZ_Public&Industrial_2015_ExtWall,    !- Construction Name
    Block Poly_10_Transport Storey 4,    !- Zone Name
    ,                         !- Space Name
    Outdoors,                 !- Outside Boundary Condition
    ,                         !- Outside Boundary Condition Object
    SunExposed,               !- Sun Exposure
    WindExposed,              !- Wind Exposure
    autocalculate,            !- View Factor to Ground
    autocalculate,            !- Number of Vertices
    11.74629984179046,        !- Vertex 1 Xcoordinate
    24.63506024889648,        !- Vertex 1 Ycoordinate
    20,                       !- Vertex 1 Zcoordinate
    11.74629984179046,        !- Vertex 2 Xcoordinate
    24.63506024889648,        !- Vertex 2 Ycoordinate
    16,                       !- Vertex 2 Zcoordinate
    0,                        !- Vertex 3 Xcoordinate
    3.182198490481824,        !- Vertex 3 Ycoordinate
    16,                       !- Vertex 3 Zcoordinate
    0,                        !- Vertex 4 Xcoordinate
    3.182198490481824,        !- Vertex 4 Ycoordinate
    20;                       !- Vertex 4 Zcoordinate

BUILDINGSURFACE:DETAILED,
    Block Poly_10_Transport Storey 4 Wall 0012,    !- Name
    Wall,                     !- Surface Type
    HSCWZ_Public&Industrial_2015_ExtWall,    !- Construction Name
    Block Poly_10_Transport Storey 4,    !- Zone Name
    ,                         !- Space Name
    Outdoors,                 !- Outside Boundary Condition
    ,                         !- Outside Boundary Condition Object
    SunExposed,               !- Sun Exposure
    WindExposed,              !- Wind Exposure
    autocalculate,            !- View Factor to Ground
    autocalculate,            !- Number of Vertices
    0,                        !- Vertex 1 Xcoordinate
    3.182198490481824,        !- Vertex 1 Ycoordinate
    20,                       !- Vertex 1 Zcoordinate
    0,                        !- Vertex 2 Xcoordinate
    3.182198490481824,        !- Vertex 2 Ycoordinate
    16,                       !- Vertex 2 Zcoordinate
    5.48505680821836,         !- Vertex 3 Xcoordinate
    0,                        !- Vertex 3 Ycoordinate
    16,                       !- Vertex 3 Zcoordinate
    5.48505680821836,         !- Vertex 4 Xcoordinate
    0,                        !- Vertex 4 Ycoordinate
    20;                       !- Vertex 4 Zcoordinate

BUILDINGSURFACE:DETAILED,
    Block Poly_10_Transport Storey 4 Wall 0013,    !- Name
    Wall,                     !- Surface Type
    HSCWZ_Public&Industrial_2015_ExtWall,    !- Construction Name
    Block Poly_10_Transport Storey 4,    !- Zone Name
    ,                         !- Space Name
    Outdoors,                 !- Outside Boundary Condition
    ,                         !- Outside Boundary Condition Object
    SunExposed,               !- Sun Exposure
    WindExposed,              !- Wind Exposure
    autocalculate,            !- View Factor to Ground
    autocalculate,            !- Number of Vertices
    5.48505680821836,         !- Vertex 1 Xcoordinate
    0,                        !- Vertex 1 Ycoordinate
    20,                       !- Vertex 1 Zcoordinate
    5.48505680821836,         !- Vertex 2 Xcoordinate
    0,                        !- Vertex 2 Ycoordinate
    16,                       !- Vertex 2 Zcoordinate
    19.96852575952653,        !- Vertex 3 Xcoordinate
    12.76619346253574,        !- Vertex 3 Ycoordinate
    16,                       !- Vertex 3 Zcoordinate
    19.96852575952653,        !- Vertex 4 Xcoordinate
    12.76619346253574,        !- Vertex 4 Ycoordinate
    20;                       !- Vertex 4 Zcoordinate

BUILDINGSURFACE:DETAILED,
    Block Poly_10_Transport Storey 4 Wall 0014,    !- Name
    Wall,                     !- Surface Type
    HSCWZ_Public&Industrial_2015_ExtWall,    !- Construction Name
    Block Poly_10_Transport Storey 4,    !- Zone Name
    ,                         !- Space Name
    Outdoors,                 !- Outside Boundary Condition
    ,                         !- Outside Boundary Condition Object
    SunExposed,               !- Sun Exposure
    WindExposed,              !- Wind Exposure
    autocalculate,            !- View Factor to Ground
    autocalculate,            !- Number of Vertices
    19.96852575952653,        !- Vertex 1 Xcoordinate
    12.76619346253574,        !- Vertex 1 Ycoordinate
    20,                       !- Vertex 1 Zcoordinate
    19.96852575952653,        !- Vertex 2 Xcoordinate
    12.76619346253574,        !- Vertex 2 Ycoordinate
    16,                       !- Vertex 2 Zcoordinate
    43.61737599730259,        !- Vertex 3 Xcoordinate
    39.81539847282693,        !- Vertex 3 Ycoordinate
    16,                       !- Vertex 3 Zcoordinate
    43.61737599730259,        !- Vertex 4 Xcoordinate
    39.81539847282693,        !- Vertex 4 Ycoordinate
    20;                       !- Vertex 4 Zcoordinate

BUILDINGSURFACE:DETAILED,
    Block Poly_10_Transport Storey 4 Wall 0015,    !- Name
    Wall,                     !- Surface Type
    HSCWZ_Public&Industrial_2015_ExtWall,    !- Construction Name
    Block Poly_10_Transport Storey 4,    !- Zone Name
    ,                         !- Space Name
    Outdoors,                 !- Outside Boundary Condition
    ,                         !- Outside Boundary Condition Object
    SunExposed,               !- Sun Exposure
    WindExposed,              !- Wind Exposure
    autocalculate,            !- View Factor to Ground
    autocalculate,            !- Number of Vertices
    43.61737599730259,        !- Vertex 1 Xcoordinate
    39.81539847282693,        !- Vertex 1 Ycoordinate
    20,                       !- Vertex 1 Zcoordinate
    43.61737599730259,        !- Vertex 2 Xcoordinate
    39.81539847282693,        !- Vertex 2 Ycoordinate
    16,                       !- Vertex 2 Zcoordinate
    52.13433890312445,        !- Vertex 3 Xcoordinate
    55.43803394399583,        !- Vertex 3 Ycoordinate
    16,                       !- Vertex 3 Zcoordinate
    52.13433890312445,        !- Vertex 4 Xcoordinate
    55.43803394399583,        !- Vertex 4 Ycoordinate
    20;                       !- Vertex 4 Zcoordinate

BUILDINGSURFACE:DETAILED,
    Block Poly_10_Transport Storey 4 Wall 0016,    !- Name
    Wall,                     !- Surface Type
    HSCWZ_Public&Industrial_2015_ExtWall,    !- Construction Name
    Block Poly_10_Transport Storey 4,    !- Zone Name
    ,                         !- Space Name
    Outdoors,                 !- Outside Boundary Condition
    ,                         !- Outside Boundary Condition Object
    SunExposed,               !- Sun Exposure
    WindExposed,              !- Wind Exposure
    autocalculate,            !- View Factor to Ground
    autocalculate,            !- Number of Vertices
    52.13433890312445,        !- Vertex 1 Xcoordinate
    55.43803394399583,        !- Vertex 1 Ycoordinate
    20,                       !- Vertex 1 Zcoordinate
    52.13433890312445,        !- Vertex 2 Xcoordinate
    55.43803394399583,        !- Vertex 2 Ycoordinate
    16,                       !- Vertex 2 Zcoordinate
    58.73998370452318,        !- Vertex 3 Xcoordinate
    70.75518421921879,        !- Vertex 3 Ycoordinate
    16,                       !- Vertex 3 Zcoordinate
    58.73998370452318,        !- Vertex 4 Xcoordinate
    70.75518421921879,        !- Vertex 4 Ycoordinate
    20;                       !- Vertex 4 Zcoordinate

BUILDINGSURFACE:DETAILED,
    Block Poly_10_Transport Storey 4 Wall 0017,    !- Name
    Wall,                     !- Surface Type
    HSCWZ_Public&Industrial_2015_ExtWall,    !- Construction Name
    Block Poly_10_Transport Storey 4,    !- Zone Name
    ,                         !- Space Name
    Outdoors,                 !- Outside Boundary Condition
    ,                         !- Outside Boundary Condition Object
    SunExposed,               !- Sun Exposure
    WindExposed,              !- Wind Exposure
    autocalculate,            !- View Factor to Ground
    autocalculate,            !- Number of Vertices
    58.73998370452318,        !- Vertex 1 Xcoordinate
    70.75518421921879,        !- Vertex 1 Ycoordinate
    20,                       !- Vertex 1 Zcoordinate
    58.73998370452318,        !- Vertex 2 Xcoordinate
    70.75518421921879,        !- Vertex 2 Ycoordinate
    16,                       !- Vertex 2 Zcoordinate
    62.13431701203808,        !- Vertex 3 Xcoordinate
    88.2244211435318,         !- Vertex 3 Ycoordinate
    16,                       !- Vertex 3 Zcoordinate
    62.13431701203808,        !- Vertex 4 Xcoordinate
    88.2244211435318,         !- Vertex 4 Ycoordinate
    20;                       !- Vertex 4 Zcoordinate

BUILDINGSURFACE:DETAILED,
    Block Poly_10_Transport Storey 4 Wall 0018,    !- Name
    Wall,                     !- Surface Type
    HSCWZ_Public&Industrial_2015_ExtWall,    !- Construction Name
    Block Poly_10_Transport Storey 4,    !- Zone Name
    ,                         !- Space Name
    Outdoors,                 !- Outside Boundary Condition
    ,                         !- Outside Boundary Condition Object
    SunExposed,               !- Sun Exposure
    WindExposed,              !- Wind Exposure
    autocalculate,            !- View Factor to Ground
    autocalculate,            !- Number of Vertices
    62.13431701203808,        !- Vertex 1 Xcoordinate
    88.2244211435318,         !- Vertex 1 Ycoordinate
    20,                       !- Vertex 1 Zcoordinate
    62.13431701203808,        !- Vertex 2 Xcoordinate
    88.2244211435318,         !- Vertex 2 Ycoordinate
    16,                       !- Vertex 2 Zcoordinate
    64.09399570594542,        !- Vertex 3 Xcoordinate
    105.38140459405258,       !- Vertex 3 Ycoordinate
    16,                       !- Vertex 3 Zcoordinate
    64.09399570594542,        !- Vertex 4 Xcoordinate
    105.38140459405258,       !- Vertex 4 Ycoordinate
    20;                       !- Vertex 4 Zcoordinate

BUILDINGSURFACE:DETAILED,
    Block Poly_10_Transport Storey 4 Wall 0019,    !- Name
    Wall,                     !- Surface Type
    HSCWZ_Public&Industrial_2015_ExtWall,    !- Construction Name
    Block Poly_10_Transport Storey 4,    !- Zone Name
    ,                         !- Space Name
    Outdoors,                 !- Outside Boundary Condition
    ,                         !- Outside Boundary Condition Object
    SunExposed,               !- Sun Exposure
    WindExposed,              !- Wind Exposure
    autocalculate,            !- View Factor to Ground
    autocalculate,            !- Number of Vertices
    64.09399570594542,        !- Vertex 1 Xcoordinate
    105.38140459405258,       !- Vertex 1 Ycoordinate
    20,                       !- Vertex 1 Zcoordinate
    64.09399570594542,        !- Vertex 2 Xcoordinate
    105.38140459405258,       !- Vertex 2 Ycoordinate
    16,                       !- Vertex 2 Zcoordinate
    67.36129693506518,        !- Vertex 3 Xcoordinate
    100.45678756013513,       !- Vertex 3 Ycoordinate
    16,                       !- Vertex 3 Zcoordinate
    67.36129693506518,        !- Vertex 4 Xcoordinate
    100.45678756013513,       !- Vertex 4 Ycoordinate
    20;                       !- Vertex 4 Zcoordinate

BUILDINGSURFACE:DETAILED,
    Block Poly_10_Transport Storey 4 Wall 0020,    !- Name
    Wall,                     !- Surface Type
    HSCWZ_Public&Industrial_2015_ExtWall,    !- Construction Name
    Block Poly_10_Transport Storey 4,    !- Zone Name
    ,                         !- Space Name
    Outdoors,                 !- Outside Boundary Condition
    ,                         !- Outside Boundary Condition Object
    SunExposed,               !- Sun Exposure
    WindExposed,              !- Wind Exposure
    autocalculate,            !- View Factor to Ground
    autocalculate,            !- Number of Vertices
    67.36129693506518,        !- Vertex 1 Xcoordinate
    100.45678756013513,       !- Vertex 1 Ycoordinate
    20,                       !- Vertex 1 Zcoordinate
    67.36129693506518,        !- Vertex 2 Xcoordinate
    100.45678756013513,       !- Vertex 2 Ycoordinate
    16,                       !- Vertex 2 Zcoordinate
    70.38193054415751,        !- Vertex 3 Xcoordinate
    98.3074109419249,         !- Vertex 3 Ycoordinate
    16,                       !- Vertex 3 Zcoordinate
    70.38193054415751,        !- Vertex 4 Xcoordinate
    98.3074109419249,         !- Vertex 4 Ycoordinate
    20;                       !- Vertex 4 Zcoordinate

BUILDINGSURFACE:DETAILED,
    Block Poly_10_Transport Storey 4 Wall 0021,    !- Name
    Wall,                     !- Surface Type
    HSCWZ_Public&Industrial_2015_ExtWall,    !- Construction Name
    Block Poly_10_Transport Storey 4,    !- Zone Name
    ,                         !- Space Name
    Outdoors,                 !- Outside Boundary Condition
    ,                         !- Outside Boundary Condition Object
    SunExposed,               !- Sun Exposure
    WindExposed,              !- Wind Exposure
    autocalculate,            !- View Factor to Ground
    autocalculate,            !- Number of Vertices
    70.38193054415751,        !- Vertex 1 Xcoordinate
    98.3074109419249,         !- Vertex 1 Ycoordinate
    20,                       !- Vertex 1 Zcoordinate
    70.38193054415751,        !- Vertex 2 Xcoordinate
    98.3074109419249,         !- Vertex 2 Ycoordinate
    16,                       !- Vertex 2 Zcoordinate
    79.63351727463305,        !- Vertex 3 Xcoordinate
    98.50877078669146,        !- Vertex 3 Ycoordinate
    16,                       !- Vertex 3 Zcoordinate
    79.63351727463305,        !- Vertex 4 Xcoordinate
    98.50877078669146,        !- Vertex 4 Ycoordinate
    20;                       !- Vertex 4 Zcoordinate

BUILDINGSURFACE:DETAILED,
    Block Poly_10_Transport Storey 4 Wall 0022,    !- Name
    Wall,                     !- Surface Type
    HSCWZ_Public&Industrial_2015_ExtWall,    !- Construction Name
    Block Poly_10_Transport Storey 4,    !- Zone Name
    ,                         !- Space Name
    Outdoors,                 !- Outside Boundary Condition
    ,                         !- Outside Boundary Condition Object
    SunExposed,               !- Sun Exposure
    WindExposed,              !- Wind Exposure
    autocalculate,            !- View Factor to Ground
    autocalculate,            !- Number of Vertices
    79.63351727463305,        !- Vertex 1 Xcoordinate
    98.50877078669146,        !- Vertex 1 Ycoordinate
    20,                       !- Vertex 1 Zcoordinate
    79.63351727463305,        !- Vertex 2 Xcoordinate
    98.50877078669146,        !- Vertex 2 Ycoordinate
    16,                       !- Vertex 2 Zcoordinate
    84.16742233437253,        !- Vertex 3 Xcoordinate
    102.2140186545439,        !- Vertex 3 Ycoordinate
    16,                       !- Vertex 3 Zcoordinate
    84.16742233437253,        !- Vertex 4 Xcoordinate
    102.2140186545439,        !- Vertex 4 Ycoordinate
    20;                       !- Vertex 4 Zcoordinate

BUILDINGSURFACE:DETAILED,
    Block Poly_10_Transport Storey 4 Wall 0023,    !- Name
    Wall,                     !- Surface Type
    HSCWZ_Public&Industrial_2015_ExtWall,    !- Construction Name
    Block Poly_10_Transport Storey 4,    !- Zone Name
    ,                         !- Space Name
    Outdoors,                 !- Outside Boundary Condition
    ,                         !- Outside Boundary Condition Object
    SunExposed,               !- Sun Exposure
    WindExposed,              !- Wind Exposure
    autocalculate,            !- View Factor to Ground
    autocalculate,            !- Number of Vertices
    84.16742233437253,        !- Vertex 1 Xcoordinate
    102.2140186545439,        !- Vertex 1 Ycoordinate
    20,                       !- Vertex 1 Zcoordinate
    84.16742233437253,        !- Vertex 2 Xcoordinate
    102.2140186545439,        !- Vertex 2 Ycoordinate
    16,                       !- Vertex 2 Zcoordinate
    86.42130297445692,        !- Vertex 3 Xcoordinate
    106.5059594810009,        !- Vertex 3 Ycoordinate
    16,                       !- Vertex 3 Zcoordinate
    86.42130297445692,        !- Vertex 4 Xcoordinate
    106.5059594810009,        !- Vertex 4 Ycoordinate
    20;                       !- Vertex 4 Zcoordinate

BUILDINGSURFACE:DETAILED,
    Block Poly_10_Transport Storey 4 Wall 0024,    !- Name
    Wall,                     !- Surface Type
    HSCWZ_Public&Industrial_2015_ExtWall,    !- Construction Name
    Block Poly_10_Transport Storey 4,    !- Zone Name
    ,                         !- Space Name
    Outdoors,                 !- Outside Boundary Condition
    ,                         !- Outside Boundary Condition Object
    SunExposed,               !- Sun Exposure
    WindExposed,              !- Wind Exposure
    autocalculate,            !- View Factor to Ground
    autocalculate,            !- Number of Vertices
    86.42130297445692,        !- Vertex 1 Xcoordinate
    106.5059594810009,        !- Vertex 1 Ycoordinate
    20,                       !- Vertex 1 Zcoordinate
    86.42130297445692,        !- Vertex 2 Xcoordinate
    106.5059594810009,        !- Vertex 2 Ycoordinate
    16,                       !- Vertex 2 Zcoordinate
    87.41448799846694,        !- Vertex 3 Xcoordinate
    116.02665463322774,       !- Vertex 3 Ycoordinate
    16,                       !- Vertex 3 Zcoordinate
    87.41448799846694,        !- Vertex 4 Xcoordinate
    116.02665463322774,       !- Vertex 4 Ycoordinate
    20;                       !- Vertex 4 Zcoordinate

BUILDINGSURFACE:DETAILED,
    Block Poly_10_Transport Storey 4 Wall 0025,    !- Name
    Wall,                     !- Surface Type
    HSCWZ_Public&Industrial_2015_ExtWall,    !- Construction Name
    Block Poly_10_Transport Storey 4,    !- Zone Name
    ,                         !- Space Name
    Outdoors,                 !- Outside Boundary Condition
    ,                         !- Outside Boundary Condition Object
    SunExposed,               !- Sun Exposure
    WindExposed,              !- Wind Exposure
    autocalculate,            !- View Factor to Ground
    autocalculate,            !- Number of Vertices
    87.41448799846694,        !- Vertex 1 Xcoordinate
    116.02665463322774,       !- Vertex 1 Ycoordinate
    20,                       !- Vertex 1 Zcoordinate
    87.41448799846694,        !- Vertex 2 Xcoordinate
    116.02665463322774,       !- Vertex 2 Ycoordinate
    16,                       !- Vertex 2 Zcoordinate
    85.75263154995628,        !- Vertex 3 Xcoordinate
    126.5828396230936,        !- Vertex 3 Ycoordinate
    16,                       !- Vertex 3 Zcoordinate
    85.75263154995628,        !- Vertex 4 Xcoordinate
    126.5828396230936,        !- Vertex 4 Ycoordinate
    20;                       !- Vertex 4 Zcoordinate

BUILDINGSURFACE:DETAILED,
    Block Poly_10_Transport Storey 4 Wall 0026,    !- Name
    Wall,                     !- Surface Type
    HSCWZ_Public&Industrial_2015_ExtWall,    !- Construction Name
    Block Poly_10_Transport Storey 4,    !- Zone Name
    ,                         !- Space Name
    Outdoors,                 !- Outside Boundary Condition
    ,                         !- Outside Boundary Condition Object
    SunExposed,               !- Sun Exposure
    WindExposed,              !- Wind Exposure
    autocalculate,            !- View Factor to Ground
    autocalculate,            !- Number of Vertices
    85.75263154995628,        !- Vertex 1 Xcoordinate
    126.5828396230936,        !- Vertex 1 Ycoordinate
    20,                       !- Vertex 1 Zcoordinate
    85.75263154995628,        !- Vertex 2 Xcoordinate
    126.5828396230936,        !- Vertex 2 Ycoordinate
    16,                       !- Vertex 2 Zcoordinate
    82.37585028866306,        !- Vertex 3 Xcoordinate
    130.51117793750018,       !- Vertex 3 Ycoordinate
    16,                       !- Vertex 3 Zcoordinate
    82.37585028866306,        !- Vertex 4 Xcoordinate
    130.51117793750018,       !- Vertex 4 Ycoordinate
    20;                       !- Vertex 4 Zcoordinate

BUILDINGSURFACE:DETAILED,
    Block Poly_10_Transport Storey 4 Wall 0027,    !- Name
    Wall,                     !- Surface Type
    HSCWZ_Public&Industrial_2015_ExtWall,    !- Construction Name
    Block Poly_10_Transport Storey 4,    !- Zone Name
    ,                         !- Space Name
    Outdoors,                 !- Outside Boundary Condition
    ,                         !- Outside Boundary Condition Object
    SunExposed,               !- Sun Exposure
    WindExposed,              !- Wind Exposure
    autocalculate,            !- View Factor to Ground
    autocalculate,            !- Number of Vertices
    82.37585028866306,        !- Vertex 1 Xcoordinate
    130.51117793750018,       !- Vertex 1 Ycoordinate
    20,                       !- Vertex 1 Zcoordinate
    82.37585028866306,        !- Vertex 2 Xcoordinate
    130.51117793750018,       !- Vertex 2 Ycoordinate
    16,                       !- Vertex 2 Zcoordinate
    79.72867442009738,        !- Vertex 3 Xcoordinate
    132.1009056251496,        !- Vertex 3 Ycoordinate
    16,                       !- Vertex 3 Zcoordinate
    79.72867442009738,        !- Vertex 4 Xcoordinate
    132.1009056251496,        !- Vertex 4 Ycoordinate
    20;                       !- Vertex 4 Zcoordinate

BUILDINGSURFACE:DETAILED,
    Block Poly_10_Transport Storey 4 Wall 0028,    !- Name
    Wall,                     !- Surface Type
    HSCWZ_Public&Industrial_2015_ExtWall,    !- Construction Name
    Block Poly_10_Transport Storey 4,    !- Zone Name
    ,                         !- Space Name
    Outdoors,                 !- Outside Boundary Condition
    ,                         !- Outside Boundary Condition Object
    SunExposed,               !- Sun Exposure
    WindExposed,              !- Wind Exposure
    autocalculate,            !- View Factor to Ground
    autocalculate,            !- Number of Vertices
    79.72867442009738,        !- Vertex 1 Xcoordinate
    132.1009056251496,        !- Vertex 1 Ycoordinate
    20,                       !- Vertex 1 Zcoordinate
    79.72867442009738,        !- Vertex 2 Xcoordinate
    132.1009056251496,        !- Vertex 2 Ycoordinate
    16,                       !- Vertex 2 Zcoordinate
    72.94464333995711,        !- Vertex 3 Xcoordinate
    131.0884525887668,        !- Vertex 3 Ycoordinate
    16,                       !- Vertex 3 Zcoordinate
    72.94464333995711,        !- Vertex 4 Xcoordinate
    131.0884525887668,        !- Vertex 4 Ycoordinate
    20;                       !- Vertex 4 Zcoordinate

BUILDINGSURFACE:DETAILED,
    Block Poly_10_Transport Storey 4 Wall 0029,    !- Name
    Wall,                     !- Surface Type
    HSCWZ_Public&Industrial_2015_ExtWall,    !- Construction Name
    Block Poly_10_Transport Storey 4,    !- Zone Name
    ,                         !- Space Name
    Outdoors,                 !- Outside Boundary Condition
    ,                         !- Outside Boundary Condition Object
    SunExposed,               !- Sun Exposure
    WindExposed,              !- Wind Exposure
    autocalculate,            !- View Factor to Ground
    autocalculate,            !- Number of Vertices
    72.94464333995711,        !- Vertex 1 Xcoordinate
    131.0884525887668,        !- Vertex 1 Ycoordinate
    20,                       !- Vertex 1 Zcoordinate
    72.94464333995711,        !- Vertex 2 Xcoordinate
    131.0884525887668,        !- Vertex 2 Ycoordinate
    16,                       !- Vertex 2 Zcoordinate
    68.41074579709675,        !- Vertex 3 Xcoordinate
    127.38320972304793,       !- Vertex 3 Ycoordinate
    16,                       !- Vertex 3 Zcoordinate
    68.41074579709675,        !- Vertex 4 Xcoordinate
    127.38320972304793,       !- Vertex 4 Ycoordinate
    20;                       !- Vertex 4 Zcoordinate

BUILDINGSURFACE:DETAILED,
    Block Poly_10_Transport Storey 4 Wall 0030,    !- Name
    Wall,                     !- Surface Type
    HSCWZ_Public&Industrial_2015_ExtWall,    !- Construction Name
    Block Poly_10_Transport Storey 4,    !- Zone Name
    ,                         !- Space Name
    Outdoors,                 !- Outside Boundary Condition
    ,                         !- Outside Boundary Condition Object
    SunExposed,               !- Sun Exposure
    WindExposed,              !- Wind Exposure
    autocalculate,            !- View Factor to Ground
    autocalculate,            !- Number of Vertices
    68.41074579709675,        !- Vertex 1 Xcoordinate
    127.38320972304793,       !- Vertex 1 Ycoordinate
    20,                       !- Vertex 1 Zcoordinate
    68.41074579709675,        !- Vertex 2 Xcoordinate
    127.38320972304793,       !- Vertex 2 Ycoordinate
    16,                       !- Vertex 2 Zcoordinate
    66.26634374901187,        !- Vertex 3 Xcoordinate
    124.0875455737114,        !- Vertex 3 Ycoordinate
    16,                       !- Vertex 3 Zcoordinate
    66.26634374901187,        !- Vertex 4 Xcoordinate
    124.0875455737114,        !- Vertex 4 Ycoordinate
    20;                       !- Vertex 4 Zcoordinate

BUILDINGSURFACE:DETAILED,
    Block Poly_10_Transport Storey 4 Wall 0031,    !- Name
    Wall,                     !- Surface Type
    HSCWZ_Public&Industrial_2015_ExtWall,    !- Construction Name
    Block Poly_10_Transport Storey 4,    !- Zone Name
    ,                         !- Space Name
    Outdoors,                 !- Outside Boundary Condition
    ,                         !- Outside Boundary Condition Object
    SunExposed,               !- Sun Exposure
    WindExposed,              !- Wind Exposure
    autocalculate,            !- View Factor to Ground
    autocalculate,            !- Number of Vertices
    66.26634374901187,        !- Vertex 1 Xcoordinate
    124.0875455737114,        !- Vertex 1 Ycoordinate
    20,                       !- Vertex 1 Zcoordinate
    66.26634374901187,        !- Vertex 2 Xcoordinate
    124.0875455737114,        !- Vertex 2 Ycoordinate
    16,                       !- Vertex 2 Zcoordinate
    66.81060939311283,        !- Vertex 3 Xcoordinate
    128.8472163812257,        !- Vertex 3 Ycoordinate
    16,                       !- Vertex 3 Zcoordinate
    66.81060939311283,        !- Vertex 4 Xcoordinate
    128.8472163812257,        !- Vertex 4 Ycoordinate
    20;                       !- Vertex 4 Zcoordinate

BUILDINGSURFACE:DETAILED,
    Block Poly_10_Transport Storey 4 Roof 0001,    !- Name
    Roof,                     !- Surface Type
    HSCWZ_Public&Industrial_2015_Roof,    !- Construction Name
    Block Poly_10_Transport Storey 4,    !- Zone Name
    ,                         !- Space Name
    Outdoors,                 !- Outside Boundary Condition
    ,                         !- Outside Boundary Condition Object
    SunExposed,               !- Sun Exposure
    WindExposed,              !- Wind Exposure
    autocalculate,            !- View Factor to Ground
    autocalculate,            !- Number of Vertices
    43.61737599730259,        !- Vertex 1 Xcoordinate
    39.81539847282693,        !- Vertex 1 Ycoordinate
    20,                       !- Vertex 1 Zcoordinate
    52.13433890312445,        !- Vertex 2 Xcoordinate
    55.43803394399583,        !- Vertex 2 Ycoordinate
    20,                       !- Vertex 2 Zcoordinate
    58.73998370452318,        !- Vertex 3 Xcoordinate
    70.75518421921879,        !- Vertex 3 Ycoordinate
    20,                       !- Vertex 3 Zcoordinate
    62.13431701203808,        !- Vertex 4 Xcoordinate
    88.2244211435318,         !- Vertex 4 Ycoordinate
    20,                       !- Vertex 4 Zcoordinate
    64.09399570594542,        !- Vertex 5 Xcoordinate
    105.38140459405258,       !- Vertex 5 Ycoordinate
    20,                       !- Vertex 5 Zcoordinate
    67.36129693506518,        !- Vertex 6 Xcoordinate
    100.45678756013513,       !- Vertex 6 Ycoordinate
    20,                       !- Vertex 6 Zcoordinate
    70.38193054415751,        !- Vertex 7 Xcoordinate
    98.3074109419249,         !- Vertex 7 Ycoordinate
    20,                       !- Vertex 7 Zcoordinate
    79.63351727463305,        !- Vertex 8 Xcoordinate
    98.50877078669146,        !- Vertex 8 Ycoordinate
    20,                       !- Vertex 8 Zcoordinate
    84.16742233437253,        !- Vertex 9 Xcoordinate
    102.2140186545439,        !- Vertex 9 Ycoordinate
    20,                       !- Vertex 9 Zcoordinate
    86.42130297445692,        !- Vertex 10 Xcoordinate
    106.5059594810009,        !- Vertex 10 Ycoordinate
    20,                       !- Vertex 10 Zcoordinate
    87.41448799846694,        !- Vertex 11 Xcoordinate
    116.02665463322774,       !- Vertex 11 Ycoordinate
    20,                       !- Vertex 11 Zcoordinate
    85.75263154995628,        !- Vertex 12 Xcoordinate
    126.5828396230936,        !- Vertex 12 Ycoordinate
    20,                       !- Vertex 12 Zcoordinate
    82.37585028866306,        !- Vertex 13 Xcoordinate
    130.51117793750018,       !- Vertex 13 Ycoordinate
    20,                       !- Vertex 13 Zcoordinate
    79.72867442009738,        !- Vertex 14 Xcoordinate
    132.1009056251496,        !- Vertex 14 Ycoordinate
    20,                       !- Vertex 14 Zcoordinate
    72.94464333995711,        !- Vertex 15 Xcoordinate
    131.0884525887668,        !- Vertex 15 Ycoordinate
    20,                       !- Vertex 15 Zcoordinate
    68.41074579709675,        !- Vertex 16 Xcoordinate
    127.38320972304793,       !- Vertex 16 Ycoordinate
    20,                       !- Vertex 16 Zcoordinate
    66.26634374901187,        !- Vertex 17 Xcoordinate
    124.0875455737114,        !- Vertex 17 Ycoordinate
    20,                       !- Vertex 17 Zcoordinate
    66.81060939311283,        !- Vertex 18 Xcoordinate
    128.8472163812257,        !- Vertex 18 Ycoordinate
    20,                       !- Vertex 18 Zcoordinate
    63.54513706220314,        !- Vertex 19 Xcoordinate
    154.06094518117607,       !- Vertex 19 Ycoordinate
    20,                       !- Vertex 19 Zcoordinate
    60.448675296793226,       !- Vertex 20 Xcoordinate
    164.30488186795264,       !- Vertex 20 Ycoordinate
    20,                       !- Vertex 20 Zcoordinate
    55.934884526301175,       !- Vertex 21 Xcoordinate
    175.45588695583865,       !- Vertex 21 Ycoordinate
    20,                       !- Vertex 21 Zcoordinate
    39.0618533535162,         !- Vertex 22 Xcoordinate
    175.69530907273293,       !- Vertex 22 Ycoordinate
    20,                       !- Vertex 22 Zcoordinate
    38.42067523446167,        !- Vertex 23 Xcoordinate
    170.8261444461532,        !- Vertex 23 Ycoordinate
    20,                       !- Vertex 23 Zcoordinate
    33.349419859354384,       !- Vertex 24 Xcoordinate
    169.567673698999,         !- Vertex 24 Ycoordinate
    20,                       !- Vertex 24 Zcoordinate
    29.100573969306424,       !- Vertex 25 Xcoordinate
    105.32359098503366,       !- Vertex 25 Ycoordinate
    20,                       !- Vertex 25 Zcoordinate
    19.74987050244817,        !- Vertex 26 Xcoordinate
    64.5454031988047,         !- Vertex 26 Ycoordinate
    20,                       !- Vertex 26 Zcoordinate
    6.714302250882611,        !- Vertex 27 Xcoordinate
    26.147781824227422,       !- Vertex 27 Ycoordinate
    20,                       !- Vertex 27 Zcoordinate
    11.74629984179046,        !- Vertex 28 Xcoordinate
    24.63506024889648,        !- Vertex 28 Ycoordinate
    20,                       !- Vertex 28 Zcoordinate
    0,                        !- Vertex 29 Xcoordinate
    3.182198490481824,        !- Vertex 29 Ycoordinate
    20,                       !- Vertex 29 Zcoordinate
    5.48505680821836,         !- Vertex 30 Xcoordinate
    0,                        !- Vertex 30 Ycoordinate
    20,                       !- Vertex 30 Zcoordinate
    19.96852575952653,        !- Vertex 31 Xcoordinate
    12.76619346253574,        !- Vertex 31 Ycoordinate
    20;                       !- Vertex 31 Zcoordinate

BUILDINGSURFACE:DETAILED,
    Block Poly_10_Transport Storey 0 Ceiling 0001_1,    !- Name
    Ceiling,                  !- Surface Type
    HSCWZ_Public&Industrial_2015_FloorSlab,    !- Construction Name
    Block Poly_10_Transport Storey 0,    !- Zone Name
    ,                         !- Space Name
    Surface,                  !- Outside Boundary Condition
    Block Poly_10_Transport Storey 1 Floor 0001_1,    !- Outside Boundary Condition Object
    NoSun,                    !- Sun Exposure
    NoWind,                   !- Wind Exposure
    autocalculate,            !- View Factor to Ground
    autocalculate,            !- Number of Vertices
    43.617375996895134,       !- Vertex 1 Xcoordinate
    39.81539847282693,        !- Vertex 1 Ycoordinate
    4,                        !- Vertex 1 Zcoordinate
    52.1343389027752,         !- Vertex 2 Xcoordinate
    55.43803394399583,        !- Vertex 2 Ycoordinate
    4,                        !- Vertex 2 Zcoordinate
    58.73998370440677,        !- Vertex 3 Xcoordinate
    70.75518421921879,        !- Vertex 3 Ycoordinate
    4,                        !- Vertex 3 Zcoordinate
    62.13431701203808,        !- Vertex 4 Xcoordinate
    88.2244211435318,         !- Vertex 4 Ycoordinate
    4,                        !- Vertex 4 Zcoordinate
    64.09399570571259,        !- Vertex 5 Xcoordinate
    105.38140459405258,       !- Vertex 5 Ycoordinate
    4,                        !- Vertex 5 Zcoordinate
    67.36129693500698,        !- Vertex 6 Xcoordinate
    100.45678756013513,       !- Vertex 6 Ycoordinate
    4,                        !- Vertex 6 Zcoordinate
    70.3819305440411,         !- Vertex 7 Xcoordinate
    98.3074109419249,         !- Vertex 7 Ycoordinate
    4,                        !- Vertex 7 Zcoordinate
    79.63351727463305,        !- Vertex 8 Xcoordinate
    98.50877078669146,        !- Vertex 8 Ycoordinate
    4,                        !- Vertex 8 Zcoordinate
    84.16742233419791,        !- Vertex 9 Xcoordinate
    102.2140186545439,        !- Vertex 9 Ycoordinate
    4,                        !- Vertex 9 Zcoordinate
    86.42130297422409,        !- Vertex 10 Xcoordinate
    106.5059594810009,        !- Vertex 10 Ycoordinate
    4,                        !- Vertex 10 Zcoordinate
    87.41448799846694,        !- Vertex 11 Xcoordinate
    116.02665463322774,       !- Vertex 11 Ycoordinate
    4,                        !- Vertex 11 Zcoordinate
    85.75263154972345,        !- Vertex 12 Xcoordinate
    126.5828396230936,        !- Vertex 12 Ycoordinate
    4,                        !- Vertex 12 Zcoordinate
    82.37585028866306,        !- Vertex 13 Xcoordinate
    130.51117793750018,       !- Vertex 13 Ycoordinate
    4,                        !- Vertex 13 Zcoordinate
    79.72867441968992,        !- Vertex 14 Xcoordinate
    132.1009056251496,        !- Vertex 14 Ycoordinate
    4,                        !- Vertex 14 Zcoordinate
    72.94464333960786,        !- Vertex 15 Xcoordinate
    131.0884525887668,        !- Vertex 15 Ycoordinate
    4,                        !- Vertex 15 Zcoordinate
    68.4107457967475,         !- Vertex 16 Xcoordinate
    127.38320972304791,       !- Vertex 16 Ycoordinate
    4,                        !- Vertex 16 Zcoordinate
    66.26634374866262,        !- Vertex 17 Xcoordinate
    124.0875455737114,        !- Vertex 17 Ycoordinate
    4,                        !- Vertex 17 Zcoordinate
    66.81060939282179,        !- Vertex 18 Xcoordinate
    128.84721638076007,       !- Vertex 18 Ycoordinate
    4,                        !- Vertex 18 Zcoordinate
    63.54513706220314,        !- Vertex 19 Xcoordinate
    154.06094518117607,       !- Vertex 19 Ycoordinate
    4,                        !- Vertex 19 Zcoordinate
    60.44867529673502,        !- Vertex 20 Xcoordinate
    164.30488186795264,       !- Vertex 20 Ycoordinate
    4,                        !- Vertex 20 Zcoordinate
    55.934884526301175,       !- Vertex 21 Xcoordinate
    175.45588695583865,       !- Vertex 21 Ycoordinate
    4,                        !- Vertex 21 Zcoordinate
    39.06185335339978,        !- Vertex 22 Xcoordinate
    175.69530907273293,       !- Vertex 22 Ycoordinate
    4,                        !- Vertex 22 Zcoordinate
    38.42067523440346,        !- Vertex 23 Xcoordinate
    170.8261444461532,        !- Vertex 23 Ycoordinate
    4,                        !- Vertex 23 Zcoordinate
    33.34941985923797,        !- Vertex 24 Xcoordinate
    169.567673698999,         !- Vertex 24 Ycoordinate
    4,                        !- Vertex 24 Zcoordinate
    29.100573969073594,       !- Vertex 25 Xcoordinate
    105.32359098503366,       !- Vertex 25 Ycoordinate
    4,                        !- Vertex 25 Zcoordinate
    19.749870502389967,       !- Vertex 26 Xcoordinate
    64.5454031988047,         !- Vertex 26 Ycoordinate
    4,                        !- Vertex 26 Zcoordinate
    6.71430225064978,         !- Vertex 27 Xcoordinate
    26.147781824227422,       !- Vertex 27 Ycoordinate
    4,                        !- Vertex 27 Zcoordinate
    11.746299841441214,       !- Vertex 28 Xcoordinate
    24.63506024889648,        !- Vertex 28 Ycoordinate
    4,                        !- Vertex 28 Zcoordinate
    0,                        !- Vertex 29 Xcoordinate
    3.1821984904818237,       !- Vertex 29 Ycoordinate
    4,                        !- Vertex 29 Zcoordinate
    5.48505680821836,         !- Vertex 30 Xcoordinate
    0,                        !- Vertex 30 Ycoordinate
    4,                        !- Vertex 30 Zcoordinate
    19.968525759410113,       !- Vertex 31 Xcoordinate
    12.766193462535739,       !- Vertex 31 Ycoordinate
    4;                        !- Vertex 31 Zcoordinate

BUILDINGSURFACE:DETAILED,
    Block Poly_10_Transport Storey 1 Floor 0001_1,    !- Name
    Floor,                    !- Surface Type
    HSCWZ_Public&Industrial_2015_FloorSlab,    !- Construction Name
    Block Poly_10_Transport Storey 1,    !- Zone Name
    ,                         !- Space Name
    Surface,                  !- Outside Boundary Condition
    Block Poly_10_Transport Storey 0 Ceiling 0001_1,    !- Outside Boundary Condition Object
    NoSun,                    !- Sun Exposure
    NoWind,                   !- Wind Exposure
    autocalculate,            !- View Factor to Ground
    autocalculate,            !- Number of Vertices
    60.44867529673502,        !- Vertex 1 Xcoordinate
    164.30488186795264,       !- Vertex 1 Ycoordinate
    4,                        !- Vertex 1 Zcoordinate
    63.54513706220314,        !- Vertex 2 Xcoordinate
    154.06094518117607,       !- Vertex 2 Ycoordinate
    4,                        !- Vertex 2 Zcoordinate
    66.81060939282179,        !- Vertex 3 Xcoordinate
    128.84721638076007,       !- Vertex 3 Ycoordinate
    4,                        !- Vertex 3 Zcoordinate
    66.26634374866262,        !- Vertex 4 Xcoordinate
    124.0875455737114,        !- Vertex 4 Ycoordinate
    4,                        !- Vertex 4 Zcoordinate
    68.4107457967475,         !- Vertex 5 Xcoordinate
    127.38320972304791,       !- Vertex 5 Ycoordinate
    4,                        !- Vertex 5 Zcoordinate
    72.94464333960786,        !- Vertex 6 Xcoordinate
    131.0884525887668,        !- Vertex 6 Ycoordinate
    4,                        !- Vertex 6 Zcoordinate
    79.72867441968992,        !- Vertex 7 Xcoordinate
    132.1009056251496,        !- Vertex 7 Ycoordinate
    4,                        !- Vertex 7 Zcoordinate
    82.37585028866306,        !- Vertex 8 Xcoordinate
    130.51117793750018,       !- Vertex 8 Ycoordinate
    4,                        !- Vertex 8 Zcoordinate
    85.75263154972345,        !- Vertex 9 Xcoordinate
    126.5828396230936,        !- Vertex 9 Ycoordinate
    4,                        !- Vertex 9 Zcoordinate
    87.41448799846694,        !- Vertex 10 Xcoordinate
    116.02665463322774,       !- Vertex 10 Ycoordinate
    4,                        !- Vertex 10 Zcoordinate
    86.42130297422409,        !- Vertex 11 Xcoordinate
    106.5059594810009,        !- Vertex 11 Ycoordinate
    4,                        !- Vertex 11 Zcoordinate
    84.16742233419791,        !- Vertex 12 Xcoordinate
    102.2140186545439,        !- Vertex 12 Ycoordinate
    4,                        !- Vertex 12 Zcoordinate
    79.63351727463305,        !- Vertex 13 Xcoordinate
    98.50877078669146,        !- Vertex 13 Ycoordinate
    4,                        !- Vertex 13 Zcoordinate
    70.3819305440411,         !- Vertex 14 Xcoordinate
    98.3074109419249,         !- Vertex 14 Ycoordinate
    4,                        !- Vertex 14 Zcoordinate
    67.36129693500698,        !- Vertex 15 Xcoordinate
    100.45678756013513,       !- Vertex 15 Ycoordinate
    4,                        !- Vertex 15 Zcoordinate
    64.09399570571259,        !- Vertex 16 Xcoordinate
    105.38140459405258,       !- Vertex 16 Ycoordinate
    4,                        !- Vertex 16 Zcoordinate
    62.13431701203808,        !- Vertex 17 Xcoordinate
    88.2244211435318,         !- Vertex 17 Ycoordinate
    4,                        !- Vertex 17 Zcoordinate
    58.73998370440677,        !- Vertex 18 Xcoordinate
    70.75518421921879,        !- Vertex 18 Ycoordinate
    4,                        !- Vertex 18 Zcoordinate
    52.1343389027752,         !- Vertex 19 Xcoordinate
    55.43803394399583,        !- Vertex 19 Ycoordinate
    4,                        !- Vertex 19 Zcoordinate
    43.617375996895134,       !- Vertex 20 Xcoordinate
    39.81539847282693,        !- Vertex 20 Ycoordinate
    4,                        !- Vertex 20 Zcoordinate
    19.968525759410113,       !- Vertex 21 Xcoordinate
    12.766193462535739,       !- Vertex 21 Ycoordinate
    4,                        !- Vertex 21 Zcoordinate
    5.48505680821836,         !- Vertex 22 Xcoordinate
    0,                        !- Vertex 22 Ycoordinate
    4,                        !- Vertex 22 Zcoordinate
    0,                        !- Vertex 23 Xcoordinate
    3.1821984904818237,       !- Vertex 23 Ycoordinate
    4,                        !- Vertex 23 Zcoordinate
    11.746299841441214,       !- Vertex 24 Xcoordinate
    24.63506024889648,        !- Vertex 24 Ycoordinate
    4,                        !- Vertex 24 Zcoordinate
    6.71430225064978,         !- Vertex 25 Xcoordinate
    26.147781824227422,       !- Vertex 25 Ycoordinate
    4,                        !- Vertex 25 Zcoordinate
    19.749870502389967,       !- Vertex 26 Xcoordinate
    64.5454031988047,         !- Vertex 26 Ycoordinate
    4,                        !- Vertex 26 Zcoordinate
    29.100573969073594,       !- Vertex 27 Xcoordinate
    105.32359098503366,       !- Vertex 27 Ycoordinate
    4,                        !- Vertex 27 Zcoordinate
    33.34941985923797,        !- Vertex 28 Xcoordinate
    169.567673698999,         !- Vertex 28 Ycoordinate
    4,                        !- Vertex 28 Zcoordinate
    38.42067523440346,        !- Vertex 29 Xcoordinate
    170.8261444461532,        !- Vertex 29 Ycoordinate
    4,                        !- Vertex 29 Zcoordinate
    39.06185335339978,        !- Vertex 30 Xcoordinate
    175.69530907273293,       !- Vertex 30 Ycoordinate
    4,                        !- Vertex 30 Zcoordinate
    55.934884526301175,       !- Vertex 31 Xcoordinate
    175.45588695583865,       !- Vertex 31 Ycoordinate
    4;                        !- Vertex 31 Zcoordinate

BUILDINGSURFACE:DETAILED,
    Block Poly_10_Transport Storey 1 Ceiling 0001_1,    !- Name
    Ceiling,                  !- Surface Type
    HSCWZ_Public&Industrial_2015_FloorSlab,    !- Construction Name
    Block Poly_10_Transport Storey 1,    !- Zone Name
    ,                         !- Space Name
    Surface,                  !- Outside Boundary Condition
    Block Poly_10_Transport Storey 2 Floor 0001_1,    !- Outside Boundary Condition Object
    NoSun,                    !- Sun Exposure
    NoWind,                   !- Wind Exposure
    autocalculate,            !- View Factor to Ground
    autocalculate,            !- Number of Vertices
    43.617375996895134,       !- Vertex 1 Xcoordinate
    39.81539847282693,        !- Vertex 1 Ycoordinate
    8,                        !- Vertex 1 Zcoordinate
    52.1343389027752,         !- Vertex 2 Xcoordinate
    55.43803394399583,        !- Vertex 2 Ycoordinate
    8,                        !- Vertex 2 Zcoordinate
    58.73998370440677,        !- Vertex 3 Xcoordinate
    70.75518421921879,        !- Vertex 3 Ycoordinate
    8,                        !- Vertex 3 Zcoordinate
    62.13431701203808,        !- Vertex 4 Xcoordinate
    88.2244211435318,         !- Vertex 4 Ycoordinate
    8,                        !- Vertex 4 Zcoordinate
    64.09399570571259,        !- Vertex 5 Xcoordinate
    105.38140459405258,       !- Vertex 5 Ycoordinate
    8,                        !- Vertex 5 Zcoordinate
    67.36129693500698,        !- Vertex 6 Xcoordinate
    100.45678756013513,       !- Vertex 6 Ycoordinate
    8,                        !- Vertex 6 Zcoordinate
    70.3819305440411,         !- Vertex 7 Xcoordinate
    98.3074109419249,         !- Vertex 7 Ycoordinate
    8,                        !- Vertex 7 Zcoordinate
    79.63351727463305,        !- Vertex 8 Xcoordinate
    98.50877078669146,        !- Vertex 8 Ycoordinate
    8,                        !- Vertex 8 Zcoordinate
    84.16742233419791,        !- Vertex 9 Xcoordinate
    102.2140186545439,        !- Vertex 9 Ycoordinate
    8,                        !- Vertex 9 Zcoordinate
    86.42130297422409,        !- Vertex 10 Xcoordinate
    106.5059594810009,        !- Vertex 10 Ycoordinate
    8,                        !- Vertex 10 Zcoordinate
    87.41448799846694,        !- Vertex 11 Xcoordinate
    116.02665463322774,       !- Vertex 11 Ycoordinate
    8,                        !- Vertex 11 Zcoordinate
    85.75263154972345,        !- Vertex 12 Xcoordinate
    126.5828396230936,        !- Vertex 12 Ycoordinate
    8,                        !- Vertex 12 Zcoordinate
    82.37585028866306,        !- Vertex 13 Xcoordinate
    130.51117793750018,       !- Vertex 13 Ycoordinate
    8,                        !- Vertex 13 Zcoordinate
    79.72867441968992,        !- Vertex 14 Xcoordinate
    132.1009056251496,        !- Vertex 14 Ycoordinate
    8,                        !- Vertex 14 Zcoordinate
    72.94464333960786,        !- Vertex 15 Xcoordinate
    131.0884525887668,        !- Vertex 15 Ycoordinate
    8,                        !- Vertex 15 Zcoordinate
    68.4107457967475,         !- Vertex 16 Xcoordinate
    127.38320972304791,       !- Vertex 16 Ycoordinate
    8,                        !- Vertex 16 Zcoordinate
    66.26634374866262,        !- Vertex 17 Xcoordinate
    124.0875455737114,        !- Vertex 17 Ycoordinate
    8,                        !- Vertex 17 Zcoordinate
    66.81060939282179,        !- Vertex 18 Xcoordinate
    128.84721638076007,       !- Vertex 18 Ycoordinate
    8,                        !- Vertex 18 Zcoordinate
    63.54513706220314,        !- Vertex 19 Xcoordinate
    154.06094518117607,       !- Vertex 19 Ycoordinate
    8,                        !- Vertex 19 Zcoordinate
    60.44867529673502,        !- Vertex 20 Xcoordinate
    164.30488186795264,       !- Vertex 20 Ycoordinate
    8,                        !- Vertex 20 Zcoordinate
    55.934884526301175,       !- Vertex 21 Xcoordinate
    175.45588695583865,       !- Vertex 21 Ycoordinate
    8,                        !- Vertex 21 Zcoordinate
    39.06185335339978,        !- Vertex 22 Xcoordinate
    175.69530907273293,       !- Vertex 22 Ycoordinate
    8,                        !- Vertex 22 Zcoordinate
    38.42067523440346,        !- Vertex 23 Xcoordinate
    170.8261444461532,        !- Vertex 23 Ycoordinate
    8,                        !- Vertex 23 Zcoordinate
    33.34941985923797,        !- Vertex 24 Xcoordinate
    169.567673698999,         !- Vertex 24 Ycoordinate
    8,                        !- Vertex 24 Zcoordinate
    29.100573969073594,       !- Vertex 25 Xcoordinate
    105.32359098503366,       !- Vertex 25 Ycoordinate
    8,                        !- Vertex 25 Zcoordinate
    19.749870502389967,       !- Vertex 26 Xcoordinate
    64.5454031988047,         !- Vertex 26 Ycoordinate
    8,                        !- Vertex 26 Zcoordinate
    6.71430225064978,         !- Vertex 27 Xcoordinate
    26.147781824227422,       !- Vertex 27 Ycoordinate
    8,                        !- Vertex 27 Zcoordinate
    11.746299841441214,       !- Vertex 28 Xcoordinate
    24.63506024889648,        !- Vertex 28 Ycoordinate
    8,                        !- Vertex 28 Zcoordinate
    0,                        !- Vertex 29 Xcoordinate
    3.1821984904818237,       !- Vertex 29 Ycoordinate
    8,                        !- Vertex 29 Zcoordinate
    5.48505680821836,         !- Vertex 30 Xcoordinate
    0,                        !- Vertex 30 Ycoordinate
    8,                        !- Vertex 30 Zcoordinate
    19.968525759410113,       !- Vertex 31 Xcoordinate
    12.766193462535739,       !- Vertex 31 Ycoordinate
    8;                        !- Vertex 31 Zcoordinate

BUILDINGSURFACE:DETAILED,
    Block Poly_10_Transport Storey 2 Floor 0001_1,    !- Name
    Floor,                    !- Surface Type
    HSCWZ_Public&Industrial_2015_FloorSlab,    !- Construction Name
    Block Poly_10_Transport Storey 2,    !- Zone Name
    ,                         !- Space Name
    Surface,                  !- Outside Boundary Condition
    Block Poly_10_Transport Storey 1 Ceiling 0001_1,    !- Outside Boundary Condition Object
    NoSun,                    !- Sun Exposure
    NoWind,                   !- Wind Exposure
    autocalculate,            !- View Factor to Ground
    autocalculate,            !- Number of Vertices
    60.44867529673502,        !- Vertex 1 Xcoordinate
    164.30488186795264,       !- Vertex 1 Ycoordinate
    8,                        !- Vertex 1 Zcoordinate
    63.54513706220314,        !- Vertex 2 Xcoordinate
    154.06094518117607,       !- Vertex 2 Ycoordinate
    8,                        !- Vertex 2 Zcoordinate
    66.81060939282179,        !- Vertex 3 Xcoordinate
    128.84721638076007,       !- Vertex 3 Ycoordinate
    8,                        !- Vertex 3 Zcoordinate
    66.26634374866262,        !- Vertex 4 Xcoordinate
    124.0875455737114,        !- Vertex 4 Ycoordinate
    8,                        !- Vertex 4 Zcoordinate
    68.4107457967475,         !- Vertex 5 Xcoordinate
    127.38320972304791,       !- Vertex 5 Ycoordinate
    8,                        !- Vertex 5 Zcoordinate
    72.94464333960786,        !- Vertex 6 Xcoordinate
    131.0884525887668,        !- Vertex 6 Ycoordinate
    8,                        !- Vertex 6 Zcoordinate
    79.72867441968992,        !- Vertex 7 Xcoordinate
    132.1009056251496,        !- Vertex 7 Ycoordinate
    8,                        !- Vertex 7 Zcoordinate
    82.37585028866306,        !- Vertex 8 Xcoordinate
    130.51117793750018,       !- Vertex 8 Ycoordinate
    8,                        !- Vertex 8 Zcoordinate
    85.75263154972345,        !- Vertex 9 Xcoordinate
    126.5828396230936,        !- Vertex 9 Ycoordinate
    8,                        !- Vertex 9 Zcoordinate
    87.41448799846694,        !- Vertex 10 Xcoordinate
    116.02665463322774,       !- Vertex 10 Ycoordinate
    8,                        !- Vertex 10 Zcoordinate
    86.42130297422409,        !- Vertex 11 Xcoordinate
    106.5059594810009,        !- Vertex 11 Ycoordinate
    8,                        !- Vertex 11 Zcoordinate
    84.16742233419791,        !- Vertex 12 Xcoordinate
    102.2140186545439,        !- Vertex 12 Ycoordinate
    8,                        !- Vertex 12 Zcoordinate
    79.63351727463305,        !- Vertex 13 Xcoordinate
    98.50877078669146,        !- Vertex 13 Ycoordinate
    8,                        !- Vertex 13 Zcoordinate
    70.3819305440411,         !- Vertex 14 Xcoordinate
    98.3074109419249,         !- Vertex 14 Ycoordinate
    8,                        !- Vertex 14 Zcoordinate
    67.36129693500698,        !- Vertex 15 Xcoordinate
    100.45678756013513,       !- Vertex 15 Ycoordinate
    8,                        !- Vertex 15 Zcoordinate
    64.09399570571259,        !- Vertex 16 Xcoordinate
    105.38140459405258,       !- Vertex 16 Ycoordinate
    8,                        !- Vertex 16 Zcoordinate
    62.13431701203808,        !- Vertex 17 Xcoordinate
    88.2244211435318,         !- Vertex 17 Ycoordinate
    8,                        !- Vertex 17 Zcoordinate
    58.73998370440677,        !- Vertex 18 Xcoordinate
    70.75518421921879,        !- Vertex 18 Ycoordinate
    8,                        !- Vertex 18 Zcoordinate
    52.1343389027752,         !- Vertex 19 Xcoordinate
    55.43803394399583,        !- Vertex 19 Ycoordinate
    8,                        !- Vertex 19 Zcoordinate
    43.617375996895134,       !- Vertex 20 Xcoordinate
    39.81539847282693,        !- Vertex 20 Ycoordinate
    8,                        !- Vertex 20 Zcoordinate
    19.968525759410113,       !- Vertex 21 Xcoordinate
    12.766193462535739,       !- Vertex 21 Ycoordinate
    8,                        !- Vertex 21 Zcoordinate
    5.48505680821836,         !- Vertex 22 Xcoordinate
    0,                        !- Vertex 22 Ycoordinate
    8,                        !- Vertex 22 Zcoordinate
    0,                        !- Vertex 23 Xcoordinate
    3.1821984904818237,       !- Vertex 23 Ycoordinate
    8,                        !- Vertex 23 Zcoordinate
    11.746299841441214,       !- Vertex 24 Xcoordinate
    24.63506024889648,        !- Vertex 24 Ycoordinate
    8,                        !- Vertex 24 Zcoordinate
    6.71430225064978,         !- Vertex 25 Xcoordinate
    26.147781824227422,       !- Vertex 25 Ycoordinate
    8,                        !- Vertex 25 Zcoordinate
    19.749870502389967,       !- Vertex 26 Xcoordinate
    64.5454031988047,         !- Vertex 26 Ycoordinate
    8,                        !- Vertex 26 Zcoordinate
    29.100573969073594,       !- Vertex 27 Xcoordinate
    105.32359098503366,       !- Vertex 27 Ycoordinate
    8,                        !- Vertex 27 Zcoordinate
    33.34941985923797,        !- Vertex 28 Xcoordinate
    169.567673698999,         !- Vertex 28 Ycoordinate
    8,                        !- Vertex 28 Zcoordinate
    38.42067523440346,        !- Vertex 29 Xcoordinate
    170.8261444461532,        !- Vertex 29 Ycoordinate
    8,                        !- Vertex 29 Zcoordinate
    39.06185335339978,        !- Vertex 30 Xcoordinate
    175.69530907273293,       !- Vertex 30 Ycoordinate
    8,                        !- Vertex 30 Zcoordinate
    55.934884526301175,       !- Vertex 31 Xcoordinate
    175.45588695583865,       !- Vertex 31 Ycoordinate
    8;                        !- Vertex 31 Zcoordinate

BUILDINGSURFACE:DETAILED,
    Block Poly_10_Transport Storey 2 Ceiling 0001_1,    !- Name
    Ceiling,                  !- Surface Type
    HSCWZ_Public&Industrial_2015_FloorSlab,    !- Construction Name
    Block Poly_10_Transport Storey 2,    !- Zone Name
    ,                         !- Space Name
    Surface,                  !- Outside Boundary Condition
    Block Poly_10_Transport Storey 3 Floor 0001_1,    !- Outside Boundary Condition Object
    NoSun,                    !- Sun Exposure
    NoWind,                   !- Wind Exposure
    autocalculate,            !- View Factor to Ground
    autocalculate,            !- Number of Vertices
    43.617375996895134,       !- Vertex 1 Xcoordinate
    39.81539847282693,        !- Vertex 1 Ycoordinate
    12,                       !- Vertex 1 Zcoordinate
    52.1343389027752,         !- Vertex 2 Xcoordinate
    55.43803394399583,        !- Vertex 2 Ycoordinate
    12,                       !- Vertex 2 Zcoordinate
    58.73998370440677,        !- Vertex 3 Xcoordinate
    70.75518421921879,        !- Vertex 3 Ycoordinate
    12,                       !- Vertex 3 Zcoordinate
    62.13431701203808,        !- Vertex 4 Xcoordinate
    88.2244211435318,         !- Vertex 4 Ycoordinate
    12,                       !- Vertex 4 Zcoordinate
    64.09399570571259,        !- Vertex 5 Xcoordinate
    105.38140459405258,       !- Vertex 5 Ycoordinate
    12,                       !- Vertex 5 Zcoordinate
    67.36129693500698,        !- Vertex 6 Xcoordinate
    100.45678756013513,       !- Vertex 6 Ycoordinate
    12,                       !- Vertex 6 Zcoordinate
    70.3819305440411,         !- Vertex 7 Xcoordinate
    98.3074109419249,         !- Vertex 7 Ycoordinate
    12,                       !- Vertex 7 Zcoordinate
    79.63351727463305,        !- Vertex 8 Xcoordinate
    98.50877078669146,        !- Vertex 8 Ycoordinate
    12,                       !- Vertex 8 Zcoordinate
    84.16742233419791,        !- Vertex 9 Xcoordinate
    102.2140186545439,        !- Vertex 9 Ycoordinate
    12,                       !- Vertex 9 Zcoordinate
    86.42130297422409,        !- Vertex 10 Xcoordinate
    106.5059594810009,        !- Vertex 10 Ycoordinate
    12,                       !- Vertex 10 Zcoordinate
    87.41448799846694,        !- Vertex 11 Xcoordinate
    116.02665463322774,       !- Vertex 11 Ycoordinate
    12,                       !- Vertex 11 Zcoordinate
    85.75263154972345,        !- Vertex 12 Xcoordinate
    126.5828396230936,        !- Vertex 12 Ycoordinate
    12,                       !- Vertex 12 Zcoordinate
    82.37585028866306,        !- Vertex 13 Xcoordinate
    130.51117793750018,       !- Vertex 13 Ycoordinate
    12,                       !- Vertex 13 Zcoordinate
    79.72867441968992,        !- Vertex 14 Xcoordinate
    132.1009056251496,        !- Vertex 14 Ycoordinate
    12,                       !- Vertex 14 Zcoordinate
    72.94464333960786,        !- Vertex 15 Xcoordinate
    131.0884525887668,        !- Vertex 15 Ycoordinate
    12,                       !- Vertex 15 Zcoordinate
    68.4107457967475,         !- Vertex 16 Xcoordinate
    127.38320972304791,       !- Vertex 16 Ycoordinate
    12,                       !- Vertex 16 Zcoordinate
    66.26634374866262,        !- Vertex 17 Xcoordinate
    124.0875455737114,        !- Vertex 17 Ycoordinate
    12,                       !- Vertex 17 Zcoordinate
    66.81060939282179,        !- Vertex 18 Xcoordinate
    128.84721638076007,       !- Vertex 18 Ycoordinate
    12,                       !- Vertex 18 Zcoordinate
    63.54513706220314,        !- Vertex 19 Xcoordinate
    154.06094518117607,       !- Vertex 19 Ycoordinate
    12,                       !- Vertex 19 Zcoordinate
    60.44867529673502,        !- Vertex 20 Xcoordinate
    164.30488186795264,       !- Vertex 20 Ycoordinate
    12,                       !- Vertex 20 Zcoordinate
    55.934884526301175,       !- Vertex 21 Xcoordinate
    175.45588695583865,       !- Vertex 21 Ycoordinate
    12,                       !- Vertex 21 Zcoordinate
    39.06185335339978,        !- Vertex 22 Xcoordinate
    175.69530907273293,       !- Vertex 22 Ycoordinate
    12,                       !- Vertex 22 Zcoordinate
    38.42067523440346,        !- Vertex 23 Xcoordinate
    170.8261444461532,        !- Vertex 23 Ycoordinate
    12,                       !- Vertex 23 Zcoordinate
    33.34941985923797,        !- Vertex 24 Xcoordinate
    169.567673698999,         !- Vertex 24 Ycoordinate
    12,                       !- Vertex 24 Zcoordinate
    29.100573969073594,       !- Vertex 25 Xcoordinate
    105.32359098503366,       !- Vertex 25 Ycoordinate
    12,                       !- Vertex 25 Zcoordinate
    19.749870502389967,       !- Vertex 26 Xcoordinate
    64.5454031988047,         !- Vertex 26 Ycoordinate
    12,                       !- Vertex 26 Zcoordinate
    6.71430225064978,         !- Vertex 27 Xcoordinate
    26.147781824227422,       !- Vertex 27 Ycoordinate
    12,                       !- Vertex 27 Zcoordinate
    11.746299841441214,       !- Vertex 28 Xcoordinate
    24.63506024889648,        !- Vertex 28 Ycoordinate
    12,                       !- Vertex 28 Zcoordinate
    0,                        !- Vertex 29 Xcoordinate
    3.1821984904818237,       !- Vertex 29 Ycoordinate
    12,                       !- Vertex 29 Zcoordinate
    5.48505680821836,         !- Vertex 30 Xcoordinate
    0,                        !- Vertex 30 Ycoordinate
    12,                       !- Vertex 30 Zcoordinate
    19.968525759410113,       !- Vertex 31 Xcoordinate
    12.766193462535739,       !- Vertex 31 Ycoordinate
    12;                       !- Vertex 31 Zcoordinate

BUILDINGSURFACE:DETAILED,
    Block Poly_10_Transport Storey 3 Floor 0001_1,    !- Name
    Floor,                    !- Surface Type
    HSCWZ_Public&Industrial_2015_FloorSlab,    !- Construction Name
    Block Poly_10_Transport Storey 3,    !- Zone Name
    ,                         !- Space Name
    Surface,                  !- Outside Boundary Condition
    Block Poly_10_Transport Storey 2 Ceiling 0001_1,    !- Outside Boundary Condition Object
    NoSun,                    !- Sun Exposure
    NoWind,                   !- Wind Exposure
    autocalculate,            !- View Factor to Ground
    autocalculate,            !- Number of Vertices
    60.44867529673502,        !- Vertex 1 Xcoordinate
    164.30488186795264,       !- Vertex 1 Ycoordinate
    12,                       !- Vertex 1 Zcoordinate
    63.54513706220314,        !- Vertex 2 Xcoordinate
    154.06094518117607,       !- Vertex 2 Ycoordinate
    12,                       !- Vertex 2 Zcoordinate
    66.81060939282179,        !- Vertex 3 Xcoordinate
    128.84721638076007,       !- Vertex 3 Ycoordinate
    12,                       !- Vertex 3 Zcoordinate
    66.26634374866262,        !- Vertex 4 Xcoordinate
    124.0875455737114,        !- Vertex 4 Ycoordinate
    12,                       !- Vertex 4 Zcoordinate
    68.4107457967475,         !- Vertex 5 Xcoordinate
    127.38320972304791,       !- Vertex 5 Ycoordinate
    12,                       !- Vertex 5 Zcoordinate
    72.94464333960786,        !- Vertex 6 Xcoordinate
    131.0884525887668,        !- Vertex 6 Ycoordinate
    12,                       !- Vertex 6 Zcoordinate
    79.72867441968992,        !- Vertex 7 Xcoordinate
    132.1009056251496,        !- Vertex 7 Ycoordinate
    12,                       !- Vertex 7 Zcoordinate
    82.37585028866306,        !- Vertex 8 Xcoordinate
    130.51117793750018,       !- Vertex 8 Ycoordinate
    12,                       !- Vertex 8 Zcoordinate
    85.75263154972345,        !- Vertex 9 Xcoordinate
    126.5828396230936,        !- Vertex 9 Ycoordinate
    12,                       !- Vertex 9 Zcoordinate
    87.41448799846694,        !- Vertex 10 Xcoordinate
    116.02665463322774,       !- Vertex 10 Ycoordinate
    12,                       !- Vertex 10 Zcoordinate
    86.42130297422409,        !- Vertex 11 Xcoordinate
    106.5059594810009,        !- Vertex 11 Ycoordinate
    12,                       !- Vertex 11 Zcoordinate
    84.16742233419791,        !- Vertex 12 Xcoordinate
    102.2140186545439,        !- Vertex 12 Ycoordinate
    12,                       !- Vertex 12 Zcoordinate
    79.63351727463305,        !- Vertex 13 Xcoordinate
    98.50877078669146,        !- Vertex 13 Ycoordinate
    12,                       !- Vertex 13 Zcoordinate
    70.3819305440411,         !- Vertex 14 Xcoordinate
    98.3074109419249,         !- Vertex 14 Ycoordinate
    12,                       !- Vertex 14 Zcoordinate
    67.36129693500698,        !- Vertex 15 Xcoordinate
    100.45678756013513,       !- Vertex 15 Ycoordinate
    12,                       !- Vertex 15 Zcoordinate
    64.09399570571259,        !- Vertex 16 Xcoordinate
    105.38140459405258,       !- Vertex 16 Ycoordinate
    12,                       !- Vertex 16 Zcoordinate
    62.13431701203808,        !- Vertex 17 Xcoordinate
    88.2244211435318,         !- Vertex 17 Ycoordinate
    12,                       !- Vertex 17 Zcoordinate
    58.73998370440677,        !- Vertex 18 Xcoordinate
    70.75518421921879,        !- Vertex 18 Ycoordinate
    12,                       !- Vertex 18 Zcoordinate
    52.1343389027752,         !- Vertex 19 Xcoordinate
    55.43803394399583,        !- Vertex 19 Ycoordinate
    12,                       !- Vertex 19 Zcoordinate
    43.617375996895134,       !- Vertex 20 Xcoordinate
    39.81539847282693,        !- Vertex 20 Ycoordinate
    12,                       !- Vertex 20 Zcoordinate
    19.968525759410113,       !- Vertex 21 Xcoordinate
    12.766193462535739,       !- Vertex 21 Ycoordinate
    12,                       !- Vertex 21 Zcoordinate
    5.48505680821836,         !- Vertex 22 Xcoordinate
    0,                        !- Vertex 22 Ycoordinate
    12,                       !- Vertex 22 Zcoordinate
    0,                        !- Vertex 23 Xcoordinate
    3.1821984904818237,       !- Vertex 23 Ycoordinate
    12,                       !- Vertex 23 Zcoordinate
    11.746299841441214,       !- Vertex 24 Xcoordinate
    24.63506024889648,        !- Vertex 24 Ycoordinate
    12,                       !- Vertex 24 Zcoordinate
    6.71430225064978,         !- Vertex 25 Xcoordinate
    26.147781824227422,       !- Vertex 25 Ycoordinate
    12,                       !- Vertex 25 Zcoordinate
    19.749870502389967,       !- Vertex 26 Xcoordinate
    64.5454031988047,         !- Vertex 26 Ycoordinate
    12,                       !- Vertex 26 Zcoordinate
    29.100573969073594,       !- Vertex 27 Xcoordinate
    105.32359098503366,       !- Vertex 27 Ycoordinate
    12,                       !- Vertex 27 Zcoordinate
    33.34941985923797,        !- Vertex 28 Xcoordinate
    169.567673698999,         !- Vertex 28 Ycoordinate
    12,                       !- Vertex 28 Zcoordinate
    38.42067523440346,        !- Vertex 29 Xcoordinate
    170.8261444461532,        !- Vertex 29 Ycoordinate
    12,                       !- Vertex 29 Zcoordinate
    39.06185335339978,        !- Vertex 30 Xcoordinate
    175.69530907273293,       !- Vertex 30 Ycoordinate
    12,                       !- Vertex 30 Zcoordinate
    55.934884526301175,       !- Vertex 31 Xcoordinate
    175.45588695583865,       !- Vertex 31 Ycoordinate
    12;                       !- Vertex 31 Zcoordinate

BUILDINGSURFACE:DETAILED,
    Block Poly_10_Transport Storey 3 Ceiling 0001_1,    !- Name
    Ceiling,                  !- Surface Type
    HSCWZ_Public&Industrial_2015_FloorSlab,    !- Construction Name
    Block Poly_10_Transport Storey 3,    !- Zone Name
    ,                         !- Space Name
    Surface,                  !- Outside Boundary Condition
    Block Poly_10_Transport Storey 4 Floor 0001_1,    !- Outside Boundary Condition Object
    NoSun,                    !- Sun Exposure
    NoWind,                   !- Wind Exposure
    autocalculate,            !- View Factor to Ground
    autocalculate,            !- Number of Vertices
    43.617375996895134,       !- Vertex 1 Xcoordinate
    39.81539847282693,        !- Vertex 1 Ycoordinate
    16,                       !- Vertex 1 Zcoordinate
    52.1343389027752,         !- Vertex 2 Xcoordinate
    55.43803394399583,        !- Vertex 2 Ycoordinate
    16,                       !- Vertex 2 Zcoordinate
    58.73998370440677,        !- Vertex 3 Xcoordinate
    70.75518421921879,        !- Vertex 3 Ycoordinate
    16,                       !- Vertex 3 Zcoordinate
    62.13431701203808,        !- Vertex 4 Xcoordinate
    88.2244211435318,         !- Vertex 4 Ycoordinate
    16,                       !- Vertex 4 Zcoordinate
    64.09399570571259,        !- Vertex 5 Xcoordinate
    105.38140459405258,       !- Vertex 5 Ycoordinate
    16,                       !- Vertex 5 Zcoordinate
    67.36129693500698,        !- Vertex 6 Xcoordinate
    100.45678756013513,       !- Vertex 6 Ycoordinate
    16,                       !- Vertex 6 Zcoordinate
    70.3819305440411,         !- Vertex 7 Xcoordinate
    98.3074109419249,         !- Vertex 7 Ycoordinate
    16,                       !- Vertex 7 Zcoordinate
    79.63351727463305,        !- Vertex 8 Xcoordinate
    98.50877078669146,        !- Vertex 8 Ycoordinate
    16,                       !- Vertex 8 Zcoordinate
    84.16742233419791,        !- Vertex 9 Xcoordinate
    102.2140186545439,        !- Vertex 9 Ycoordinate
    16,                       !- Vertex 9 Zcoordinate
    86.42130297422409,        !- Vertex 10 Xcoordinate
    106.5059594810009,        !- Vertex 10 Ycoordinate
    16,                       !- Vertex 10 Zcoordinate
    87.41448799846694,        !- Vertex 11 Xcoordinate
    116.02665463322774,       !- Vertex 11 Ycoordinate
    16,                       !- Vertex 11 Zcoordinate
    85.75263154972345,        !- Vertex 12 Xcoordinate
    126.5828396230936,        !- Vertex 12 Ycoordinate
    16,                       !- Vertex 12 Zcoordinate
    82.37585028866306,        !- Vertex 13 Xcoordinate
    130.51117793750018,       !- Vertex 13 Ycoordinate
    16,                       !- Vertex 13 Zcoordinate
    79.72867441968992,        !- Vertex 14 Xcoordinate
    132.1009056251496,        !- Vertex 14 Ycoordinate
    16,                       !- Vertex 14 Zcoordinate
    72.94464333960786,        !- Vertex 15 Xcoordinate
    131.0884525887668,        !- Vertex 15 Ycoordinate
    16,                       !- Vertex 15 Zcoordinate
    68.4107457967475,         !- Vertex 16 Xcoordinate
    127.38320972304791,       !- Vertex 16 Ycoordinate
    16,                       !- Vertex 16 Zcoordinate
    66.26634374866262,        !- Vertex 17 Xcoordinate
    124.0875455737114,        !- Vertex 17 Ycoordinate
    16,                       !- Vertex 17 Zcoordinate
    66.81060939282179,        !- Vertex 18 Xcoordinate
    128.84721638076007,       !- Vertex 18 Ycoordinate
    16,                       !- Vertex 18 Zcoordinate
    63.54513706220314,        !- Vertex 19 Xcoordinate
    154.06094518117607,       !- Vertex 19 Ycoordinate
    16,                       !- Vertex 19 Zcoordinate
    60.44867529673502,        !- Vertex 20 Xcoordinate
    164.30488186795264,       !- Vertex 20 Ycoordinate
    16,                       !- Vertex 20 Zcoordinate
    55.934884526301175,       !- Vertex 21 Xcoordinate
    175.45588695583865,       !- Vertex 21 Ycoordinate
    16,                       !- Vertex 21 Zcoordinate
    39.06185335339978,        !- Vertex 22 Xcoordinate
    175.69530907273293,       !- Vertex 22 Ycoordinate
    16,                       !- Vertex 22 Zcoordinate
    38.42067523440346,        !- Vertex 23 Xcoordinate
    170.8261444461532,        !- Vertex 23 Ycoordinate
    16,                       !- Vertex 23 Zcoordinate
    33.34941985923797,        !- Vertex 24 Xcoordinate
    169.567673698999,         !- Vertex 24 Ycoordinate
    16,                       !- Vertex 24 Zcoordinate
    29.100573969073594,       !- Vertex 25 Xcoordinate
    105.32359098503366,       !- Vertex 25 Ycoordinate
    16,                       !- Vertex 25 Zcoordinate
    19.749870502389967,       !- Vertex 26 Xcoordinate
    64.5454031988047,         !- Vertex 26 Ycoordinate
    16,                       !- Vertex 26 Zcoordinate
    6.71430225064978,         !- Vertex 27 Xcoordinate
    26.147781824227422,       !- Vertex 27 Ycoordinate
    16,                       !- Vertex 27 Zcoordinate
    11.746299841441214,       !- Vertex 28 Xcoordinate
    24.63506024889648,        !- Vertex 28 Ycoordinate
    16,                       !- Vertex 28 Zcoordinate
    0,                        !- Vertex 29 Xcoordinate
    3.1821984904818237,       !- Vertex 29 Ycoordinate
    16,                       !- Vertex 29 Zcoordinate
    5.48505680821836,         !- Vertex 30 Xcoordinate
    0,                        !- Vertex 30 Ycoordinate
    16,                       !- Vertex 30 Zcoordinate
    19.968525759410113,       !- Vertex 31 Xcoordinate
    12.766193462535739,       !- Vertex 31 Ycoordinate
    16;                       !- Vertex 31 Zcoordinate

BUILDINGSURFACE:DETAILED,
    Block Poly_10_Transport Storey 4 Floor 0001_1,    !- Name
    Floor,                    !- Surface Type
    HSCWZ_Public&Industrial_2015_FloorSlab,    !- Construction Name
    Block Poly_10_Transport Storey 4,    !- Zone Name
    ,                         !- Space Name
    Surface,                  !- Outside Boundary Condition
    Block Poly_10_Transport Storey 3 Ceiling 0001_1,    !- Outside Boundary Condition Object
    NoSun,                    !- Sun Exposure
    NoWind,                   !- Wind Exposure
    autocalculate,            !- View Factor to Ground
    autocalculate,            !- Number of Vertices
    60.44867529673502,        !- Vertex 1 Xcoordinate
    164.30488186795264,       !- Vertex 1 Ycoordinate
    16,                       !- Vertex 1 Zcoordinate
    63.54513706220314,        !- Vertex 2 Xcoordinate
    154.06094518117607,       !- Vertex 2 Ycoordinate
    16,                       !- Vertex 2 Zcoordinate
    66.81060939282179,        !- Vertex 3 Xcoordinate
    128.84721638076007,       !- Vertex 3 Ycoordinate
    16,                       !- Vertex 3 Zcoordinate
    66.26634374866262,        !- Vertex 4 Xcoordinate
    124.0875455737114,        !- Vertex 4 Ycoordinate
    16,                       !- Vertex 4 Zcoordinate
    68.4107457967475,         !- Vertex 5 Xcoordinate
    127.38320972304791,       !- Vertex 5 Ycoordinate
    16,                       !- Vertex 5 Zcoordinate
    72.94464333960786,        !- Vertex 6 Xcoordinate
    131.0884525887668,        !- Vertex 6 Ycoordinate
    16,                       !- Vertex 6 Zcoordinate
    79.72867441968992,        !- Vertex 7 Xcoordinate
    132.1009056251496,        !- Vertex 7 Ycoordinate
    16,                       !- Vertex 7 Zcoordinate
    82.37585028866306,        !- Vertex 8 Xcoordinate
    130.51117793750018,       !- Vertex 8 Ycoordinate
    16,                       !- Vertex 8 Zcoordinate
    85.75263154972345,        !- Vertex 9 Xcoordinate
    126.5828396230936,        !- Vertex 9 Ycoordinate
    16,                       !- Vertex 9 Zcoordinate
    87.41448799846694,        !- Vertex 10 Xcoordinate
    116.02665463322774,       !- Vertex 10 Ycoordinate
    16,                       !- Vertex 10 Zcoordinate
    86.42130297422409,        !- Vertex 11 Xcoordinate
    106.5059594810009,        !- Vertex 11 Ycoordinate
    16,                       !- Vertex 11 Zcoordinate
    84.16742233419791,        !- Vertex 12 Xcoordinate
    102.2140186545439,        !- Vertex 12 Ycoordinate
    16,                       !- Vertex 12 Zcoordinate
    79.63351727463305,        !- Vertex 13 Xcoordinate
    98.50877078669146,        !- Vertex 13 Ycoordinate
    16,                       !- Vertex 13 Zcoordinate
    70.3819305440411,         !- Vertex 14 Xcoordinate
    98.3074109419249,         !- Vertex 14 Ycoordinate
    16,                       !- Vertex 14 Zcoordinate
    67.36129693500698,        !- Vertex 15 Xcoordinate
    100.45678756013513,       !- Vertex 15 Ycoordinate
    16,                       !- Vertex 15 Zcoordinate
    64.09399570571259,        !- Vertex 16 Xcoordinate
    105.38140459405258,       !- Vertex 16 Ycoordinate
    16,                       !- Vertex 16 Zcoordinate
    62.13431701203808,        !- Vertex 17 Xcoordinate
    88.2244211435318,         !- Vertex 17 Ycoordinate
    16,                       !- Vertex 17 Zcoordinate
    58.73998370440677,        !- Vertex 18 Xcoordinate
    70.75518421921879,        !- Vertex 18 Ycoordinate
    16,                       !- Vertex 18 Zcoordinate
    52.1343389027752,         !- Vertex 19 Xcoordinate
    55.43803394399583,        !- Vertex 19 Ycoordinate
    16,                       !- Vertex 19 Zcoordinate
    43.617375996895134,       !- Vertex 20 Xcoordinate
    39.81539847282693,        !- Vertex 20 Ycoordinate
    16,                       !- Vertex 20 Zcoordinate
    19.968525759410113,       !- Vertex 21 Xcoordinate
    12.766193462535739,       !- Vertex 21 Ycoordinate
    16,                       !- Vertex 21 Zcoordinate
    5.48505680821836,         !- Vertex 22 Xcoordinate
    0,                        !- Vertex 22 Ycoordinate
    16,                       !- Vertex 22 Zcoordinate
    0,                        !- Vertex 23 Xcoordinate
    3.1821984904818237,       !- Vertex 23 Ycoordinate
    16,                       !- Vertex 23 Zcoordinate
    11.746299841441214,       !- Vertex 24 Xcoordinate
    24.63506024889648,        !- Vertex 24 Ycoordinate
    16,                       !- Vertex 24 Zcoordinate
    6.71430225064978,         !- Vertex 25 Xcoordinate
    26.147781824227422,       !- Vertex 25 Ycoordinate
    16,                       !- Vertex 25 Zcoordinate
    19.749870502389967,       !- Vertex 26 Xcoordinate
    64.5454031988047,         !- Vertex 26 Ycoordinate
    16,                       !- Vertex 26 Zcoordinate
    29.100573969073594,       !- Vertex 27 Xcoordinate
    105.32359098503366,       !- Vertex 27 Ycoordinate
    16,                       !- Vertex 27 Zcoordinate
    33.34941985923797,        !- Vertex 28 Xcoordinate
    169.567673698999,         !- Vertex 28 Ycoordinate
    16,                       !- Vertex 28 Zcoordinate
    38.42067523440346,        !- Vertex 29 Xcoordinate
    170.8261444461532,        !- Vertex 29 Ycoordinate
    16,                       !- Vertex 29 Zcoordinate
    39.06185335339978,        !- Vertex 30 Xcoordinate
    175.69530907273293,       !- Vertex 30 Ycoordinate
    16,                       !- Vertex 30 Zcoordinate
    55.934884526301175,       !- Vertex 31 Xcoordinate
    175.45588695583865,       !- Vertex 31 Ycoordinate
    16;                       !- Vertex 31 Zcoordinate

FENESTRATIONSURFACE:DETAILED,
    Block Poly_10_Transport Storey 0 Wall 0001 window,    !- Name
    Window,                   !- Surface Type
    HSCWZ_Public&Industrial_2015_Win,    !- Construction Name
    Block Poly_10_Transport Storey 0 Wall 0001,    !- Building Surface Name
    ,                         !- Outside Boundary Condition Object
    autocalculate,            !- View Factor to Ground
    ,                         !- Frame and Divider Name
    1,                        !- Multiplier
    autocalculate,            !- Number of Vertices
    66.80897665694737,        !- Vertex 1 Xcoordinate
    128.85982324562568,       !- Vertex 1 Ycoordinate
    2.7,                      !- Vertex 1 Zcoordinate
    66.80897665694737,        !- Vertex 2 Xcoordinate
    128.85982324562568,       !- Vertex 2 Ycoordinate
    1.3,                      !- Vertex 2 Zcoordinate
    63.546769798368594,       !- Vertex 3 Xcoordinate
    154.0483383167761,        !- Vertex 3 Ycoordinate
    1.3,                      !- Vertex 3 Zcoordinate
    63.546769798368594,       !- Vertex 4 Xcoordinate
    154.0483383167761,        !- Vertex 4 Ycoordinate
    2.7;                      !- Vertex 4 Zcoordinate

FENESTRATIONSURFACE:DETAILED,
    Block Poly_10_Transport Storey 0 Wall 0002 window,    !- Name
    Window,                   !- Surface Type
    HSCWZ_Public&Industrial_2015_Win,    !- Construction Name
    Block Poly_10_Transport Storey 0 Wall 0002,    !- Building Surface Name
    ,                         !- Outside Boundary Condition Object
    autocalculate,            !- View Factor to Ground
    ,                         !- Frame and Divider Name
    1,                        !- Multiplier
    autocalculate,            !- Number of Vertices
    63.543588831320434,       !- Vertex 1 Xcoordinate
    154.06606714951945,       !- Vertex 1 Ycoordinate
    2.7,                      !- Vertex 1 Zcoordinate
    63.543588831320434,       !- Vertex 2 Xcoordinate
    154.06606714951945,       !- Vertex 2 Ycoordinate
    1.3,                      !- Vertex 2 Zcoordinate
    60.45022352767593,        !- Vertex 3 Xcoordinate
    164.29975989960926,       !- Vertex 3 Ycoordinate
    1.3,                      !- Vertex 3 Zcoordinate
    60.45022352767593,        !- Vertex 4 Xcoordinate
    164.29975989960926,       !- Vertex 4 Ycoordinate
    2.7;                      !- Vertex 4 Zcoordinate

FENESTRATIONSURFACE:DETAILED,
    Block Poly_10_Transport Storey 0 Wall 0003 window,    !- Name
    Window,                   !- Surface Type
    HSCWZ_Public&Industrial_2015_Win,    !- Construction Name
    Block Poly_10_Transport Storey 0 Wall 0003,    !- Building Surface Name
    ,                         !- Outside Boundary Condition Object
    autocalculate,            !- View Factor to Ground
    ,                         !- Frame and Divider Name
    1,                        !- Multiplier
    autocalculate,            !- Number of Vertices
    60.44641840140798,        !- Vertex 1 Xcoordinate
    164.31045737049658,       !- Vertex 1 Ycoordinate
    2.7,                      !- Vertex 1 Zcoordinate
    60.44641840140798,        !- Vertex 2 Xcoordinate
    164.31045737049658,       !- Vertex 2 Ycoordinate
    1.3,                      !- Vertex 2 Zcoordinate
    55.93714142168642,        !- Vertex 3 Xcoordinate
    175.45031145329472,       !- Vertex 3 Ycoordinate
    1.3,                      !- Vertex 3 Zcoordinate
    55.93714142168642,        !- Vertex 4 Xcoordinate
    175.45031145329472,       !- Vertex 4 Ycoordinate
    2.7;                      !- Vertex 4 Zcoordinate

FENESTRATIONSURFACE:DETAILED,
    Block Poly_10_Transport Storey 0 Wall 0004 window,    !- Name
    Window,                   !- Surface Type
    HSCWZ_Public&Industrial_2015_Win,    !- Construction Name
    Block Poly_10_Transport Storey 0 Wall 0004,    !- Building Surface Name
    ,                         !- Outside Boundary Condition Object
    autocalculate,            !- View Factor to Ground
    ,                         !- Frame and Divider Name
    1,                        !- Multiplier
    autocalculate,            !- Number of Vertices
    55.92644801071478,        !- Vertex 1 Xcoordinate
    175.4560066668971,        !- Vertex 1 Ycoordinate
    2.7,                      !- Vertex 1 Zcoordinate
    55.92644801071478,        !- Vertex 2 Xcoordinate
    175.4560066668971,        !- Vertex 2 Ycoordinate
    1.3,                      !- Vertex 2 Zcoordinate
    39.070289869102595,       !- Vertex 3 Xcoordinate
    175.69518936167447,       !- Vertex 3 Ycoordinate
    1.3,                      !- Vertex 3 Zcoordinate
    39.070289869102595,       !- Vertex 4 Xcoordinate
    175.69518936167447,       !- Vertex 4 Ycoordinate
    2.7;                      !- Vertex 4 Zcoordinate

FENESTRATIONSURFACE:DETAILED,
    Block Poly_10_Transport Storey 0 Wall 0005 window,    !- Name
    Window,                   !- Surface Type
    HSCWZ_Public&Industrial_2015_Win,    !- Construction Name
    Block Poly_10_Transport Storey 0 Wall 0005,    !- Building Surface Name
    ,                         !- Outside Boundary Condition Object
    autocalculate,            !- View Factor to Ground
    ,                         !- Frame and Divider Name
    1,                        !- Multiplier
    autocalculate,            !- Number of Vertices
    39.06153276445667,        !- Vertex 1 Xcoordinate
    175.69287449041963,       !- Vertex 1 Ycoordinate
    2.7,                      !- Vertex 1 Zcoordinate
    39.06153276445667,        !- Vertex 2 Xcoordinate
    175.69287449041963,       !- Vertex 2 Ycoordinate
    1.3,                      !- Vertex 2 Zcoordinate
    38.420995823521196,       !- Vertex 3 Xcoordinate
    170.8285790284665,        !- Vertex 3 Ycoordinate
    1.3,                      !- Vertex 3 Zcoordinate
    38.420995823521196,       !- Vertex 4 Xcoordinate
    170.8285790284665,        !- Vertex 4 Ycoordinate
    2.7;                      !- Vertex 4 Zcoordinate

FENESTRATIONSURFACE:DETAILED,
    Block Poly_10_Transport Storey 0 Wall 0006 window,    !- Name
    Window,                   !- Surface Type
    HSCWZ_Public&Industrial_2015_Win,    !- Construction Name
    Block Poly_10_Transport Storey 0 Wall 0006,    !- Building Surface Name
    ,                         !- Outside Boundary Condition Object
    autocalculate,            !- View Factor to Ground
    ,                         !- Frame and Divider Name
    1,                        !- Multiplier
    autocalculate,            !- Number of Vertices
    38.41813960677412,        !- Vertex 1 Xcoordinate
    170.82551521077963,       !- Vertex 1 Ycoordinate
    2.7,                      !- Vertex 1 Zcoordinate
    38.41813960677412,        !- Vertex 2 Xcoordinate
    170.82551521077963,       !- Vertex 2 Ycoordinate
    1.3,                      !- Vertex 2 Zcoordinate
    33.351955487041934,       !- Vertex 3 Xcoordinate
    169.56830293437255,       !- Vertex 3 Ycoordinate
    1.3,                      !- Vertex 3 Zcoordinate
    33.351955487041934,       !- Vertex 4 Xcoordinate
    169.56830293437255,       !- Vertex 4 Ycoordinate
    2.7;                      !- Vertex 4 Zcoordinate

FENESTRATIONSURFACE:DETAILED,
    Block Poly_10_Transport Storey 0 Wall 0007 window,    !- Name
    Window,                   !- Surface Type
    HSCWZ_Public&Industrial_2015_Win,    !- Construction Name
    Block Poly_10_Transport Storey 0 Wall 0007,    !- Building Surface Name
    ,                         !- Outside Boundary Condition Object
    autocalculate,            !- View Factor to Ground
    ,                         !- Frame and Divider Name
    1,                        !- Multiplier
    autocalculate,            !- Number of Vertices
    33.34729543640936,        !- Vertex 1 Xcoordinate
    169.535551657642,         !- Vertex 1 Ycoordinate
    2.7,                      !- Vertex 1 Zcoordinate
    33.34729543640936,        !- Vertex 2 Xcoordinate
    169.535551657642,         !- Vertex 2 Ycoordinate
    1.3,                      !- Vertex 2 Zcoordinate
    29.102698392251448,       !- Vertex 3 Xcoordinate
    105.35571302639065,       !- Vertex 3 Ycoordinate
    1.3,                      !- Vertex 3 Zcoordinate
    29.102698392251448,       !- Vertex 4 Xcoordinate
    105.35571302639065,       !- Vertex 4 Ycoordinate
    2.7;                      !- Vertex 4 Zcoordinate

FENESTRATIONSURFACE:DETAILED,
    Block Poly_10_Transport Storey 0 Wall 0008 window,    !- Name
    Window,                   !- Surface Type
    HSCWZ_Public&Industrial_2015_Win,    !- Construction Name
    Block Poly_10_Transport Storey 0 Wall 0008,    !- Building Surface Name
    ,                         !- Outside Boundary Condition Object
    autocalculate,            !- View Factor to Ground
    ,                         !- Frame and Divider Name
    1,                        !- Multiplier
    autocalculate,            !- Number of Vertices
    29.095898617572995,       !- Vertex 1 Xcoordinate
    105.30320189114055,       !- Vertex 1 Ycoordinate
    2.7,                      !- Vertex 1 Zcoordinate
    29.095898617572995,       !- Vertex 2 Xcoordinate
    105.30320189114055,       !- Vertex 2 Ycoordinate
    1.3,                      !- Vertex 2 Zcoordinate
    19.7545458541816,         !- Vertex 3 Xcoordinate
    64.56579229269782,        !- Vertex 3 Ycoordinate
    1.3,                      !- Vertex 3 Zcoordinate
    19.7545458541816,         !- Vertex 4 Xcoordinate
    64.56579229269782,        !- Vertex 4 Ycoordinate
    2.7;                      !- Vertex 4 Zcoordinate

FENESTRATIONSURFACE:DETAILED,
    Block Poly_10_Transport Storey 0 Wall 0009 window,    !- Name
    Window,                   !- Surface Type
    HSCWZ_Public&Industrial_2015_Win,    !- Construction Name
    Block Poly_10_Transport Storey 0 Wall 0009,    !- Building Surface Name
    ,                         !- Outside Boundary Condition Object
    autocalculate,            !- View Factor to Ground
    ,                         !- Frame and Divider Name
    1,                        !- Multiplier
    autocalculate,            !- Number of Vertices
    19.743352718322388,       !- Vertex 1 Xcoordinate
    64.52620438811742,        !- Vertex 1 Ycoordinate
    2.7,                      !- Vertex 1 Zcoordinate
    19.743352718322388,       !- Vertex 2 Xcoordinate
    64.52620438811742,        !- Vertex 2 Ycoordinate
    1.3,                      !- Vertex 2 Zcoordinate
    6.720820035008393,        !- Vertex 3 Xcoordinate
    26.16698063491471,        !- Vertex 3 Ycoordinate
    1.3,                      !- Vertex 3 Zcoordinate
    6.720820035008393,        !- Vertex 4 Xcoordinate
    26.16698063491471,        !- Vertex 4 Ycoordinate
    2.7;                      !- Vertex 4 Zcoordinate

FENESTRATIONSURFACE:DETAILED,
    Block Poly_10_Transport Storey 0 Wall 0010 window,    !- Name
    Window,                   !- Surface Type
    HSCWZ_Public&Industrial_2015_Win,    !- Construction Name
    Block Poly_10_Transport Storey 0 Wall 0010,    !- Building Surface Name
    ,                         !- Outside Boundary Condition Object
    autocalculate,            !- View Factor to Ground
    ,                         !- Frame and Divider Name
    1,                        !- Multiplier
    autocalculate,            !- Number of Vertices
    6.716818249678065,        !- Vertex 1 Xcoordinate
    26.147025463439757,       !- Vertex 1 Ycoordinate
    2.7,                      !- Vertex 1 Zcoordinate
    6.716818249678065,        !- Vertex 2 Xcoordinate
    26.147025463439757,       !- Vertex 2 Ycoordinate
    1.3,                      !- Vertex 2 Zcoordinate
    11.743783842995006,       !- Vertex 3 Xcoordinate
    24.635816609684145,       !- Vertex 3 Ycoordinate
    1.3,                      !- Vertex 3 Zcoordinate
    11.743783842995006,       !- Vertex 4 Xcoordinate
    24.635816609684145,       !- Vertex 4 Ycoordinate
    2.7;                      !- Vertex 4 Zcoordinate

FENESTRATIONSURFACE:DETAILED,
    Block Poly_10_Transport Storey 0 Wall 0011 window,    !- Name
    Window,                   !- Surface Type
    HSCWZ_Public&Industrial_2015_Win,    !- Construction Name
    Block Poly_10_Transport Storey 0 Wall 0011,    !- Building Surface Name
    ,                         !- Outside Boundary Condition Object
    autocalculate,            !- View Factor to Ground
    ,                         !- Frame and Divider Name
    1,                        !- Multiplier
    autocalculate,            !- Number of Vertices
    11.740426691869565,       !- Vertex 1 Xcoordinate
    24.62433381801727,        !- Vertex 1 Ycoordinate
    2.7,                      !- Vertex 1 Zcoordinate
    11.740426691869565,       !- Vertex 2 Xcoordinate
    24.62433381801727,        !- Vertex 2 Ycoordinate
    1.3,                      !- Vertex 2 Zcoordinate
    0.00587315,               !- Vertex 3 Xcoordinate
    3.1929249213610316,       !- Vertex 3 Ycoordinate
    1.3,                      !- Vertex 3 Zcoordinate
    0.00587315,               !- Vertex 4 Xcoordinate
    3.1929249213610316,       !- Vertex 4 Ycoordinate
    2.7;                      !- Vertex 4 Zcoordinate

FENESTRATIONSURFACE:DETAILED,
    Block Poly_10_Transport Storey 0 Wall 0012 window,    !- Name
    Window,                   !- Surface Type
    HSCWZ_Public&Industrial_2015_Win,    !- Construction Name
    Block Poly_10_Transport Storey 0 Wall 0012,    !- Building Surface Name
    ,                         !- Outside Boundary Condition Object
    autocalculate,            !- View Factor to Ground
    ,                         !- Frame and Divider Name
    1,                        !- Multiplier
    autocalculate,            !- Number of Vertices
    0.002742528,              !- Vertex 1 Xcoordinate
    3.1806073912365833,       !- Vertex 1 Ycoordinate
    2.7,                      !- Vertex 1 Zcoordinate
    0.002742528,              !- Vertex 2 Xcoordinate
    3.1806073912365833,       !- Vertex 2 Ycoordinate
    1.3,                      !- Vertex 2 Zcoordinate
    5.482314279814251,        !- Vertex 3 Xcoordinate
    0.001591099,              !- Vertex 3 Ycoordinate
    1.3,                      !- Vertex 3 Zcoordinate
    5.482314279814251,        !- Vertex 4 Xcoordinate
    0.001591099,              !- Vertex 4 Ycoordinate
    2.7;                      !- Vertex 4 Zcoordinate

FENESTRATIONSURFACE:DETAILED,
    Block Poly_10_Transport Storey 0 Wall 0013 window,    !- Name
    Window,                   !- Surface Type
    HSCWZ_Public&Industrial_2015_Win,    !- Construction Name
    Block Poly_10_Transport Storey 0 Wall 0013,    !- Building Surface Name
    ,                         !- Outside Boundary Condition Object
    autocalculate,            !- View Factor to Ground
    ,                         !- Frame and Divider Name
    1,                        !- Multiplier
    autocalculate,            !- Number of Vertices
    5.492298542694014,        !- Vertex 1 Xcoordinate
    0.006383097,              !- Vertex 1 Ycoordinate
    2.7,                      !- Vertex 1 Zcoordinate
    5.492298542694014,        !- Vertex 2 Xcoordinate
    0.006383097,              !- Vertex 2 Ycoordinate
    1.3,                      !- Vertex 2 Zcoordinate
    19.961284025050873,       !- Vertex 3 Xcoordinate
    12.759810365804473,       !- Vertex 3 Ycoordinate
    1.3,                      !- Vertex 3 Zcoordinate
    19.961284025050873,       !- Vertex 4 Xcoordinate
    12.759810365804473,       !- Vertex 4 Ycoordinate
    2.7;                      !- Vertex 4 Zcoordinate

FENESTRATIONSURFACE:DETAILED,
    Block Poly_10_Transport Storey 0 Wall 0014 window,    !- Name
    Window,                   !- Surface Type
    HSCWZ_Public&Industrial_2015_Win,    !- Construction Name
    Block Poly_10_Transport Storey 0 Wall 0014,    !- Building Surface Name
    ,                         !- Outside Boundary Condition Object
    autocalculate,            !- View Factor to Ground
    ,                         !- Frame and Divider Name
    1,                        !- Multiplier
    autocalculate,            !- Number of Vertices
    19.980350184645417,       !- Vertex 1 Xcoordinate
    12.779718065040885,       !- Vertex 1 Ycoordinate
    2.7,                      !- Vertex 1 Zcoordinate
    19.980350184645417,       !- Vertex 2 Xcoordinate
    12.779718065040885,       !- Vertex 2 Ycoordinate
    1.3,                      !- Vertex 2 Zcoordinate
    43.6055515721837,         !- Vertex 3 Xcoordinate
    39.801873870321785,       !- Vertex 3 Ycoordinate
    1.3,                      !- Vertex 3 Zcoordinate
    43.6055515721837,         !- Vertex 4 Xcoordinate
    39.801873870321785,       !- Vertex 4 Ycoordinate
    2.7;                      !- Vertex 4 Zcoordinate

FENESTRATIONSURFACE:DETAILED,
    Block Poly_10_Transport Storey 0 Wall 0015 window,    !- Name
    Window,                   !- Surface Type
    HSCWZ_Public&Industrial_2015_Win,    !- Construction Name
    Block Poly_10_Transport Storey 0 Wall 0015,    !- Building Surface Name
    ,                         !- Outside Boundary Condition Object
    autocalculate,            !- View Factor to Ground
    ,                         !- Frame and Divider Name
    1,                        !- Multiplier
    autocalculate,            !- Number of Vertices
    43.621634478755496,       !- Vertex 1 Xcoordinate
    39.823209790562515,       !- Vertex 1 Ycoordinate
    2.7,                      !- Vertex 1 Zcoordinate
    43.621634478755496,       !- Vertex 2 Xcoordinate
    39.823209790562515,       !- Vertex 2 Ycoordinate
    1.3,                      !- Vertex 2 Zcoordinate
    52.13008042167154,        !- Vertex 3 Xcoordinate
    55.430222626260246,       !- Vertex 3 Ycoordinate
    1.3,                      !- Vertex 3 Zcoordinate
    52.13008042167154,        !- Vertex 4 Xcoordinate
    55.430222626260246,       !- Vertex 4 Ycoordinate
    2.7;                      !- Vertex 4 Zcoordinate

FENESTRATIONSURFACE:DETAILED,
    Block Poly_10_Transport Storey 0 Wall 0016 window,    !- Name
    Window,                   !- Surface Type
    HSCWZ_Public&Industrial_2015_Win,    !- Construction Name
    Block Poly_10_Transport Storey 0 Wall 0016,    !- Building Surface Name
    ,                         !- Outside Boundary Condition Object
    autocalculate,            !- View Factor to Ground
    ,                         !- Frame and Divider Name
    1,                        !- Multiplier
    autocalculate,            !- Number of Vertices
    52.13764172552515,        !- Vertex 1 Xcoordinate
    55.445692519133445,       !- Vertex 1 Ycoordinate
    2.7,                      !- Vertex 1 Zcoordinate
    52.13764172552515,        !- Vertex 2 Xcoordinate
    55.445692519133445,       !- Vertex 2 Ycoordinate
    1.3,                      !- Vertex 2 Zcoordinate
    58.736680882122485,       !- Vertex 3 Xcoordinate
    70.74752564408118,        !- Vertex 3 Ycoordinate
    1.3,                      !- Vertex 3 Zcoordinate
    58.736680882122485,       !- Vertex 4 Xcoordinate
    70.74752564408118,        !- Vertex 4 Ycoordinate
    2.7;                      !- Vertex 4 Zcoordinate

FENESTRATIONSURFACE:DETAILED,
    Block Poly_10_Transport Storey 0 Wall 0017 window,    !- Name
    Window,                   !- Surface Type
    HSCWZ_Public&Industrial_2015_Win,    !- Construction Name
    Block Poly_10_Transport Storey 0 Wall 0017,    !- Building Surface Name
    ,                         !- Outside Boundary Condition Object
    autocalculate,            !- View Factor to Ground
    ,                         !- Frame and Divider Name
    1,                        !- Multiplier
    autocalculate,            !- Number of Vertices
    58.74168087117694,        !- Vertex 1 Xcoordinate
    70.76391883768095,        !- Vertex 1 Ycoordinate
    2.7,                      !- Vertex 1 Zcoordinate
    58.74168087117694,        !- Vertex 2 Xcoordinate
    70.76391883768095,        !- Vertex 2 Ycoordinate
    1.3,                      !- Vertex 2 Zcoordinate
    62.132619845384326,       !- Vertex 3 Xcoordinate
    88.21568652506964,        !- Vertex 3 Ycoordinate
    1.3,                      !- Vertex 3 Zcoordinate
    62.132619845384326,       !- Vertex 4 Xcoordinate
    88.21568652506964,        !- Vertex 4 Ycoordinate
    2.7;                      !- Vertex 4 Zcoordinate

FENESTRATIONSURFACE:DETAILED,
    Block Poly_10_Transport Storey 0 Wall 0018 window,    !- Name
    Window,                   !- Surface Type
    HSCWZ_Public&Industrial_2015_Win,    !- Construction Name
    Block Poly_10_Transport Storey 0 Wall 0018,    !- Building Surface Name
    ,                         !- Outside Boundary Condition Object
    autocalculate,            !- View Factor to Ground
    ,                         !- Frame and Divider Name
    1,                        !- Multiplier
    autocalculate,            !- Number of Vertices
    62.135296851385036,       !- Vertex 1 Xcoordinate
    88.23299963525706,        !- Vertex 1 Ycoordinate
    2.7,                      !- Vertex 1 Zcoordinate
    62.135296851385036,       !- Vertex 2 Xcoordinate
    88.23299963525706,        !- Vertex 2 Ycoordinate
    1.3,                      !- Vertex 2 Zcoordinate
    64.09301586659846,        !- Vertex 3 Xcoordinate
    105.37282610232732,       !- Vertex 3 Ycoordinate
    1.3,                      !- Vertex 3 Zcoordinate
    64.09301586659846,        !- Vertex 4 Xcoordinate
    105.37282610232732,       !- Vertex 4 Ycoordinate
    2.7;                      !- Vertex 4 Zcoordinate

FENESTRATIONSURFACE:DETAILED,
    Block Poly_10_Transport Storey 0 Wall 0019 window,    !- Name
    Window,                   !- Surface Type
    HSCWZ_Public&Industrial_2015_Win,    !- Construction Name
    Block Poly_10_Transport Storey 0 Wall 0019,    !- Building Surface Name
    ,                         !- Outside Boundary Condition Object
    autocalculate,            !- View Factor to Ground
    ,                         !- Frame and Divider Name
    1,                        !- Multiplier
    autocalculate,            !- Number of Vertices
    64.09562935655998,        !- Vertex 1 Xcoordinate
    105.37894228553563,       !- Vertex 1 Ycoordinate
    2.7,                      !- Vertex 1 Zcoordinate
    64.09562935655998,        !- Vertex 2 Xcoordinate
    105.37894228553563,       !- Vertex 2 Ycoordinate
    1.3,                      !- Vertex 2 Zcoordinate
    67.35966328445062,        !- Vertex 3 Xcoordinate
    100.45924986865208,       !- Vertex 3 Ycoordinate
    1.3,                      !- Vertex 3 Zcoordinate
    67.35966328445062,        !- Vertex 4 Xcoordinate
    100.45924986865208,       !- Vertex 4 Ycoordinate
    2.7;                      !- Vertex 4 Zcoordinate

FENESTRATIONSURFACE:DETAILED,
    Block Poly_10_Transport Storey 0 Wall 0020 window,    !- Name
    Window,                   !- Surface Type
    HSCWZ_Public&Industrial_2015_Win,    !- Construction Name
    Block Poly_10_Transport Storey 0 Wall 0020,    !- Building Surface Name
    ,                         !- Outside Boundary Condition Object
    autocalculate,            !- View Factor to Ground
    ,                         !- Frame and Divider Name
    1,                        !- Multiplier
    autocalculate,            !- Number of Vertices
    67.36280725186973,        !- Vertex 1 Xcoordinate
    100.45571287182602,       !- Vertex 1 Ycoordinate
    2.7,                      !- Vertex 1 Zcoordinate
    67.36280725186973,        !- Vertex 2 Xcoordinate
    100.45571287182602,       !- Vertex 2 Ycoordinate
    1.3,                      !- Vertex 2 Zcoordinate
    70.38042022735297,        !- Vertex 3 Xcoordinate
    98.308485630234,          !- Vertex 3 Ycoordinate
    1.3,                      !- Vertex 3 Zcoordinate
    70.38042022735297,        !- Vertex 4 Xcoordinate
    98.308485630234,          !- Vertex 4 Ycoordinate
    2.7;                      !- Vertex 4 Zcoordinate

FENESTRATIONSURFACE:DETAILED,
    Block Poly_10_Transport Storey 0 Wall 0021 window,    !- Name
    Window,                   !- Surface Type
    HSCWZ_Public&Industrial_2015_Win,    !- Construction Name
    Block Poly_10_Transport Storey 0 Wall 0021,    !- Building Surface Name
    ,                         !- Outside Boundary Condition Object
    autocalculate,            !- View Factor to Ground
    ,                         !- Frame and Divider Name
    1,                        !- Multiplier
    autocalculate,            !- Number of Vertices
    70.38655633752275,        !- Vertex 1 Xcoordinate
    98.30751162184728,        !- Vertex 1 Ycoordinate
    2.7,                      !- Vertex 1 Zcoordinate
    70.38655633752275,        !- Vertex 2 Xcoordinate
    98.30751162184728,        !- Vertex 2 Ycoordinate
    1.3,                      !- Vertex 2 Zcoordinate
    79.62889148126781,        !- Vertex 3 Xcoordinate
    98.50867010676907,        !- Vertex 3 Ycoordinate
    1.3,                      !- Vertex 3 Zcoordinate
    79.62889148126781,        !- Vertex 4 Xcoordinate
    98.50867010676907,        !- Vertex 4 Ycoordinate
    2.7;                      !- Vertex 4 Zcoordinate

FENESTRATIONSURFACE:DETAILED,
    Block Poly_10_Transport Storey 0 Wall 0022 window,    !- Name
    Window,                   !- Surface Type
    HSCWZ_Public&Industrial_2015_Win,    !- Construction Name
    Block Poly_10_Transport Storey 0 Wall 0022,    !- Building Surface Name
    ,                         !- Outside Boundary Condition Object
    autocalculate,            !- View Factor to Ground
    ,                         !- Frame and Divider Name
    1,                        !- Multiplier
    autocalculate,            !- Number of Vertices
    79.63578422716292,        !- Vertex 1 Xcoordinate
    98.51062341062539,        !- Vertex 1 Ycoordinate
    2.7,                      !- Vertex 1 Zcoordinate
    79.63578422716292,        !- Vertex 2 Xcoordinate
    98.51062341062539,        !- Vertex 2 Ycoordinate
    1.3,                      !- Vertex 2 Zcoordinate
    84.16515538184267,        !- Vertex 3 Xcoordinate
    102.21216603060998,       !- Vertex 3 Ycoordinate
    1.3,                      !- Vertex 3 Zcoordinate
    84.16515538184267,        !- Vertex 4 Xcoordinate
    102.21216603060998,       !- Vertex 4 Ycoordinate
    2.7;                      !- Vertex 4 Zcoordinate

FENESTRATIONSURFACE:DETAILED,
    Block Poly_10_Transport Storey 0 Wall 0023 window,    !- Name
    Window,                   !- Surface Type
    HSCWZ_Public&Industrial_2015_Win,    !- Construction Name
    Block Poly_10_Transport Storey 0 Wall 0023,    !- Building Surface Name
    ,                         !- Outside Boundary Condition Object
    autocalculate,            !- View Factor to Ground
    ,                         !- Frame and Divider Name
    1,                        !- Multiplier
    autocalculate,            !- Number of Vertices
    84.16854927469258,        !- Vertex 1 Xcoordinate
    102.21616462495713,       !- Vertex 1 Ycoordinate
    2.7,                      !- Vertex 1 Zcoordinate
    84.16854927469258,        !- Vertex 2 Xcoordinate
    102.21616462495713,       !- Vertex 2 Ycoordinate
    1.3,                      !- Vertex 2 Zcoordinate
    86.42017603413687,        !- Vertex 3 Xcoordinate
    106.50381351058768,       !- Vertex 3 Ycoordinate
    1.3,                      !- Vertex 3 Zcoordinate
    86.42017603413687,        !- Vertex 4 Xcoordinate
    106.50381351058768,       !- Vertex 4 Ycoordinate
    2.7;                      !- Vertex 4 Zcoordinate

FENESTRATIONSURFACE:DETAILED,
    Block Poly_10_Transport Storey 0 Wall 0024 window,    !- Name
    Window,                   !- Surface Type
    HSCWZ_Public&Industrial_2015_Win,    !- Construction Name
    Block Poly_10_Transport Storey 0 Wall 0024,    !- Building Surface Name
    ,                         !- Outside Boundary Condition Object
    autocalculate,            !- View Factor to Ground
    ,                         !- Frame and Divider Name
    1,                        !- Multiplier
    autocalculate,            !- Number of Vertices
    86.42179956696893,        !- Vertex 1 Xcoordinate
    106.51071982857701,       !- Vertex 1 Ycoordinate
    2.7,                      !- Vertex 1 Zcoordinate
    86.42179956696893,        !- Vertex 2 Xcoordinate
    106.51071982857701,       !- Vertex 2 Ycoordinate
    1.3,                      !- Vertex 2 Zcoordinate
    87.41399140595493,        !- Vertex 3 Xcoordinate
    116.02189428565163,       !- Vertex 3 Ycoordinate
    1.3,                      !- Vertex 3 Zcoordinate
    87.41399140595493,        !- Vertex 4 Xcoordinate
    116.02189428565163,       !- Vertex 4 Ycoordinate
    2.7;                      !- Vertex 4 Zcoordinate

FENESTRATIONSURFACE:DETAILED,
    Block Poly_10_Transport Storey 0 Wall 0025 window,    !- Name
    Window,                   !- Surface Type
    HSCWZ_Public&Industrial_2015_Win,    !- Construction Name
    Block Poly_10_Transport Storey 0 Wall 0025,    !- Building Surface Name
    ,                         !- Outside Boundary Condition Object
    autocalculate,            !- View Factor to Ground
    ,                         !- Frame and Divider Name
    1,                        !- Multiplier
    autocalculate,            !- Number of Vertices
    87.41365707024268,        !- Vertex 1 Xcoordinate
    116.03193272572267,       !- Vertex 1 Ycoordinate
    2.7,                      !- Vertex 1 Zcoordinate
    87.41365707024268,        !- Vertex 2 Xcoordinate
    116.03193272572267,       !- Vertex 2 Ycoordinate
    1.3,                      !- Vertex 2 Zcoordinate
    85.75346247818054,        !- Vertex 3 Xcoordinate
    126.57756153059867,       !- Vertex 3 Ycoordinate
    1.3,                      !- Vertex 3 Zcoordinate
    85.75346247818054,        !- Vertex 4 Xcoordinate
    126.57756153059867,       !- Vertex 4 Ycoordinate
    2.7;                      !- Vertex 4 Zcoordinate

FENESTRATIONSURFACE:DETAILED,
    Block Poly_10_Transport Storey 0 Wall 0026 window,    !- Name
    Window,                   !- Surface Type
    HSCWZ_Public&Industrial_2015_Win,    !- Construction Name
    Block Poly_10_Transport Storey 0 Wall 0026,    !- Building Surface Name
    ,                         !- Outside Boundary Condition Object
    autocalculate,            !- View Factor to Ground
    ,                         !- Frame and Divider Name
    1,                        !- Multiplier
    autocalculate,            !- Number of Vertices
    85.75094315932563,        !- Vertex 1 Xcoordinate
    126.58480379225081,       !- Vertex 1 Ycoordinate
    2.7,                      !- Vertex 1 Zcoordinate
    85.75094315932563,        !- Vertex 2 Xcoordinate
    126.58480379225081,       !- Vertex 2 Ycoordinate
    1.3,                      !- Vertex 2 Zcoordinate
    82.3775386792937,         !- Vertex 3 Xcoordinate
    130.509213768343,         !- Vertex 3 Ycoordinate
    1.3,                      !- Vertex 3 Zcoordinate
    82.3775386792937,         !- Vertex 4 Xcoordinate
    130.509213768343,         !- Vertex 4 Ycoordinate
    2.7;                      !- Vertex 4 Zcoordinate

FENESTRATIONSURFACE:DETAILED,
    Block Poly_10_Transport Storey 0 Wall 0027 window,    !- Name
    Window,                   !- Surface Type
    HSCWZ_Public&Industrial_2015_Win,    !- Construction Name
    Block Poly_10_Transport Storey 0 Wall 0027,    !- Building Surface Name
    ,                         !- Outside Boundary Condition Object
    autocalculate,            !- View Factor to Ground
    ,                         !- Frame and Divider Name
    1,                        !- Multiplier
    autocalculate,            !- Number of Vertices
    82.37452670072878,        !- Vertex 1 Xcoordinate
    130.511972801344,         !- Vertex 1 Ycoordinate
    2.7,                      !- Vertex 1 Zcoordinate
    82.37452670072878,        !- Vertex 2 Xcoordinate
    130.511972801344,         !- Vertex 2 Ycoordinate
    1.3,                      !- Vertex 2 Zcoordinate
    79.72999800803166,        !- Vertex 3 Xcoordinate
    132.10011076130579,       !- Vertex 3 Ycoordinate
    1.3,                      !- Vertex 3 Zcoordinate
    79.72999800803166,        !- Vertex 4 Xcoordinate
    132.10011076130579,       !- Vertex 4 Ycoordinate
    2.7;                      !- Vertex 4 Zcoordinate

FENESTRATIONSURFACE:DETAILED,
    Block Poly_10_Transport Storey 0 Wall 0028 window,    !- Name
    Window,                   !- Surface Type
    HSCWZ_Public&Industrial_2015_Win,    !- Construction Name
    Block Poly_10_Transport Storey 0 Wall 0028,    !- Building Surface Name
    ,                         !- Outside Boundary Condition Object
    autocalculate,            !- View Factor to Ground
    ,                         !- Frame and Divider Name
    1,                        !- Multiplier
    autocalculate,            !- Number of Vertices
    79.7252824045573,         !- Vertex 1 Xcoordinate
    132.10039939863142,       !- Vertex 1 Ycoordinate
    2.7,                      !- Vertex 1 Zcoordinate
    79.7252824045573,         !- Vertex 2 Xcoordinate
    132.10039939863142,       !- Vertex 2 Ycoordinate
    1.3,                      !- Vertex 2 Zcoordinate
    72.94803535549718,        !- Vertex 3 Xcoordinate
    131.088958815285,         !- Vertex 3 Ycoordinate
    1.3,                      !- Vertex 3 Zcoordinate
    72.94803535549718,        !- Vertex 4 Xcoordinate
    131.088958815285,         !- Vertex 4 Ycoordinate
    2.7;                      !- Vertex 4 Zcoordinate

FENESTRATIONSURFACE:DETAILED,
    Block Poly_10_Transport Storey 0 Wall 0029 window,    !- Name
    Window,                   !- Surface Type
    HSCWZ_Public&Industrial_2015_Win,    !- Construction Name
    Block Poly_10_Transport Storey 0 Wall 0029,    !- Building Surface Name
    ,                         !- Outside Boundary Condition Object
    autocalculate,            !- View Factor to Ground
    ,                         !- Frame and Divider Name
    1,                        !- Multiplier
    autocalculate,            !- Number of Vertices
    72.94237639118568,        !- Vertex 1 Xcoordinate
    131.08659996733397,       !- Vertex 1 Ycoordinate
    2.7,                      !- Vertex 1 Zcoordinate
    72.94237639118568,        !- Vertex 2 Xcoordinate
    131.08659996733397,       !- Vertex 2 Ycoordinate
    1.3,                      !- Vertex 2 Zcoordinate
    68.41301274586819,        !- Vertex 3 Xcoordinate
    127.38506234448079,       !- Vertex 3 Ycoordinate
    1.3,                      !- Vertex 3 Zcoordinate
    68.41301274586819,        !- Vertex 4 Xcoordinate
    127.38506234448079,       !- Vertex 4 Ycoordinate
    2.7;                      !- Vertex 4 Zcoordinate

FENESTRATIONSURFACE:DETAILED,
    Block Poly_10_Transport Storey 0 Wall 0030 window,    !- Name
    Window,                   !- Surface Type
    HSCWZ_Public&Industrial_2015_Win,    !- Construction Name
    Block Poly_10_Transport Storey 0 Wall 0030,    !- Building Surface Name
    ,                         !- Outside Boundary Condition Object
    autocalculate,            !- View Factor to Ground
    ,                         !- Frame and Divider Name
    1,                        !- Multiplier
    autocalculate,            !- Number of Vertices
    68.40967359607271,        !- Vertex 1 Xcoordinate
    127.38156189097326,       !- Vertex 1 Ycoordinate
    2.7,                      !- Vertex 1 Zcoordinate
    68.40967359607271,        !- Vertex 2 Xcoordinate
    127.38156189097326,       !- Vertex 2 Ycoordinate
    1.3,                      !- Vertex 2 Zcoordinate
    66.26741595003591,        !- Vertex 3 Xcoordinate
    124.08919340578606,       !- Vertex 3 Ycoordinate
    1.3,                      !- Vertex 3 Zcoordinate
    66.26741595003591,        !- Vertex 4 Xcoordinate
    124.08919340578606,       !- Vertex 4 Ycoordinate
    2.7;                      !- Vertex 4 Zcoordinate

FENESTRATIONSURFACE:DETAILED,
    Block Poly_10_Transport Storey 0 Wall 0031 window,    !- Name
    Window,                   !- Surface Type
    HSCWZ_Public&Industrial_2015_Win,    !- Construction Name
    Block Poly_10_Transport Storey 0 Wall 0031,    !- Building Surface Name
    ,                         !- Outside Boundary Condition Object
    autocalculate,            !- View Factor to Ground
    ,                         !- Frame and Divider Name
    1,                        !- Multiplier
    autocalculate,            !- Number of Vertices
    66.26661588183391,        !- Vertex 1 Xcoordinate
    124.08992540911515,       !- Vertex 1 Ycoordinate
    2.7,                      !- Vertex 1 Zcoordinate
    66.26661588183391,        !- Vertex 2 Xcoordinate
    124.08992540911515,       !- Vertex 2 Ycoordinate
    1.3,                      !- Vertex 2 Zcoordinate
    66.81033726029078,        !- Vertex 3 Xcoordinate
    128.84483654582195,       !- Vertex 3 Ycoordinate
    1.3,                      !- Vertex 3 Zcoordinate
    66.81033726029078,        !- Vertex 4 Xcoordinate
    128.84483654582195,       !- Vertex 4 Ycoordinate
    2.7;                      !- Vertex 4 Zcoordinate

FENESTRATIONSURFACE:DETAILED,
    Block Poly_10_Transport Storey 1 Wall 0001 window,    !- Name
    Window,                   !- Surface Type
    HSCWZ_Public&Industrial_2015_Win,    !- Construction Name
    Block Poly_10_Transport Storey 1 Wall 0001,    !- Building Surface Name
    ,                         !- Outside Boundary Condition Object
    autocalculate,            !- View Factor to Ground
    ,                         !- Frame and Divider Name
    1,                        !- Multiplier
    autocalculate,            !- Number of Vertices
    66.80897665694737,        !- Vertex 1 Xcoordinate
    128.85982324562568,       !- Vertex 1 Ycoordinate
    6.7,                      !- Vertex 1 Zcoordinate
    66.80897665694737,        !- Vertex 2 Xcoordinate
    128.85982324562568,       !- Vertex 2 Ycoordinate
    5.3,                      !- Vertex 2 Zcoordinate
    63.546769798368594,       !- Vertex 3 Xcoordinate
    154.0483383167761,        !- Vertex 3 Ycoordinate
    5.3,                      !- Vertex 3 Zcoordinate
    63.546769798368594,       !- Vertex 4 Xcoordinate
    154.0483383167761,        !- Vertex 4 Ycoordinate
    6.7;                      !- Vertex 4 Zcoordinate

FENESTRATIONSURFACE:DETAILED,
    Block Poly_10_Transport Storey 1 Wall 0002 window,    !- Name
    Window,                   !- Surface Type
    HSCWZ_Public&Industrial_2015_Win,    !- Construction Name
    Block Poly_10_Transport Storey 1 Wall 0002,    !- Building Surface Name
    ,                         !- Outside Boundary Condition Object
    autocalculate,            !- View Factor to Ground
    ,                         !- Frame and Divider Name
    1,                        !- Multiplier
    autocalculate,            !- Number of Vertices
    63.543588831320434,       !- Vertex 1 Xcoordinate
    154.06606714951945,       !- Vertex 1 Ycoordinate
    6.7,                      !- Vertex 1 Zcoordinate
    63.543588831320434,       !- Vertex 2 Xcoordinate
    154.06606714951945,       !- Vertex 2 Ycoordinate
    5.3,                      !- Vertex 2 Zcoordinate
    60.45022352767593,        !- Vertex 3 Xcoordinate
    164.29975989960926,       !- Vertex 3 Ycoordinate
    5.3,                      !- Vertex 3 Zcoordinate
    60.45022352767593,        !- Vertex 4 Xcoordinate
    164.29975989960926,       !- Vertex 4 Ycoordinate
    6.7;                      !- Vertex 4 Zcoordinate

FENESTRATIONSURFACE:DETAILED,
    Block Poly_10_Transport Storey 1 Wall 0003 window,    !- Name
    Window,                   !- Surface Type
    HSCWZ_Public&Industrial_2015_Win,    !- Construction Name
    Block Poly_10_Transport Storey 1 Wall 0003,    !- Building Surface Name
    ,                         !- Outside Boundary Condition Object
    autocalculate,            !- View Factor to Ground
    ,                         !- Frame and Divider Name
    1,                        !- Multiplier
    autocalculate,            !- Number of Vertices
    60.44641840140798,        !- Vertex 1 Xcoordinate
    164.31045737049658,       !- Vertex 1 Ycoordinate
    6.7,                      !- Vertex 1 Zcoordinate
    60.44641840140798,        !- Vertex 2 Xcoordinate
    164.31045737049658,       !- Vertex 2 Ycoordinate
    5.3,                      !- Vertex 2 Zcoordinate
    55.93714142168642,        !- Vertex 3 Xcoordinate
    175.45031145329472,       !- Vertex 3 Ycoordinate
    5.3,                      !- Vertex 3 Zcoordinate
    55.93714142168642,        !- Vertex 4 Xcoordinate
    175.45031145329472,       !- Vertex 4 Ycoordinate
    6.7;                      !- Vertex 4 Zcoordinate

FENESTRATIONSURFACE:DETAILED,
    Block Poly_10_Transport Storey 1 Wall 0004 window,    !- Name
    Window,                   !- Surface Type
    HSCWZ_Public&Industrial_2015_Win,    !- Construction Name
    Block Poly_10_Transport Storey 1 Wall 0004,    !- Building Surface Name
    ,                         !- Outside Boundary Condition Object
    autocalculate,            !- View Factor to Ground
    ,                         !- Frame and Divider Name
    1,                        !- Multiplier
    autocalculate,            !- Number of Vertices
    55.92644801071478,        !- Vertex 1 Xcoordinate
    175.4560066668971,        !- Vertex 1 Ycoordinate
    6.7,                      !- Vertex 1 Zcoordinate
    55.92644801071478,        !- Vertex 2 Xcoordinate
    175.4560066668971,        !- Vertex 2 Ycoordinate
    5.3,                      !- Vertex 2 Zcoordinate
    39.070289869102595,       !- Vertex 3 Xcoordinate
    175.69518936167447,       !- Vertex 3 Ycoordinate
    5.3,                      !- Vertex 3 Zcoordinate
    39.070289869102595,       !- Vertex 4 Xcoordinate
    175.69518936167447,       !- Vertex 4 Ycoordinate
    6.7;                      !- Vertex 4 Zcoordinate

FENESTRATIONSURFACE:DETAILED,
    Block Poly_10_Transport Storey 1 Wall 0005 window,    !- Name
    Window,                   !- Surface Type
    HSCWZ_Public&Industrial_2015_Win,    !- Construction Name
    Block Poly_10_Transport Storey 1 Wall 0005,    !- Building Surface Name
    ,                         !- Outside Boundary Condition Object
    autocalculate,            !- View Factor to Ground
    ,                         !- Frame and Divider Name
    1,                        !- Multiplier
    autocalculate,            !- Number of Vertices
    39.06153276445667,        !- Vertex 1 Xcoordinate
    175.69287449041963,       !- Vertex 1 Ycoordinate
    6.7,                      !- Vertex 1 Zcoordinate
    39.06153276445667,        !- Vertex 2 Xcoordinate
    175.69287449041963,       !- Vertex 2 Ycoordinate
    5.3,                      !- Vertex 2 Zcoordinate
    38.420995823521196,       !- Vertex 3 Xcoordinate
    170.8285790284665,        !- Vertex 3 Ycoordinate
    5.3,                      !- Vertex 3 Zcoordinate
    38.420995823521196,       !- Vertex 4 Xcoordinate
    170.8285790284665,        !- Vertex 4 Ycoordinate
    6.7;                      !- Vertex 4 Zcoordinate

FENESTRATIONSURFACE:DETAILED,
    Block Poly_10_Transport Storey 1 Wall 0006 window,    !- Name
    Window,                   !- Surface Type
    HSCWZ_Public&Industrial_2015_Win,    !- Construction Name
    Block Poly_10_Transport Storey 1 Wall 0006,    !- Building Surface Name
    ,                         !- Outside Boundary Condition Object
    autocalculate,            !- View Factor to Ground
    ,                         !- Frame and Divider Name
    1,                        !- Multiplier
    autocalculate,            !- Number of Vertices
    38.41813960677412,        !- Vertex 1 Xcoordinate
    170.82551521077963,       !- Vertex 1 Ycoordinate
    6.7,                      !- Vertex 1 Zcoordinate
    38.41813960677412,        !- Vertex 2 Xcoordinate
    170.82551521077963,       !- Vertex 2 Ycoordinate
    5.3,                      !- Vertex 2 Zcoordinate
    33.351955487041934,       !- Vertex 3 Xcoordinate
    169.56830293437255,       !- Vertex 3 Ycoordinate
    5.3,                      !- Vertex 3 Zcoordinate
    33.351955487041934,       !- Vertex 4 Xcoordinate
    169.56830293437255,       !- Vertex 4 Ycoordinate
    6.7;                      !- Vertex 4 Zcoordinate

FENESTRATIONSURFACE:DETAILED,
    Block Poly_10_Transport Storey 1 Wall 0007 window,    !- Name
    Window,                   !- Surface Type
    HSCWZ_Public&Industrial_2015_Win,    !- Construction Name
    Block Poly_10_Transport Storey 1 Wall 0007,    !- Building Surface Name
    ,                         !- Outside Boundary Condition Object
    autocalculate,            !- View Factor to Ground
    ,                         !- Frame and Divider Name
    1,                        !- Multiplier
    autocalculate,            !- Number of Vertices
    33.34729543640936,        !- Vertex 1 Xcoordinate
    169.535551657642,         !- Vertex 1 Ycoordinate
    6.7,                      !- Vertex 1 Zcoordinate
    33.34729543640936,        !- Vertex 2 Xcoordinate
    169.535551657642,         !- Vertex 2 Ycoordinate
    5.3,                      !- Vertex 2 Zcoordinate
    29.102698392251448,       !- Vertex 3 Xcoordinate
    105.35571302639065,       !- Vertex 3 Ycoordinate
    5.3,                      !- Vertex 3 Zcoordinate
    29.102698392251448,       !- Vertex 4 Xcoordinate
    105.35571302639065,       !- Vertex 4 Ycoordinate
    6.7;                      !- Vertex 4 Zcoordinate

FENESTRATIONSURFACE:DETAILED,
    Block Poly_10_Transport Storey 1 Wall 0008 window,    !- Name
    Window,                   !- Surface Type
    HSCWZ_Public&Industrial_2015_Win,    !- Construction Name
    Block Poly_10_Transport Storey 1 Wall 0008,    !- Building Surface Name
    ,                         !- Outside Boundary Condition Object
    autocalculate,            !- View Factor to Ground
    ,                         !- Frame and Divider Name
    1,                        !- Multiplier
    autocalculate,            !- Number of Vertices
    29.095898617572995,       !- Vertex 1 Xcoordinate
    105.30320189114055,       !- Vertex 1 Ycoordinate
    6.7,                      !- Vertex 1 Zcoordinate
    29.095898617572995,       !- Vertex 2 Xcoordinate
    105.30320189114055,       !- Vertex 2 Ycoordinate
    5.3,                      !- Vertex 2 Zcoordinate
    19.7545458541816,         !- Vertex 3 Xcoordinate
    64.56579229269782,        !- Vertex 3 Ycoordinate
    5.3,                      !- Vertex 3 Zcoordinate
    19.7545458541816,         !- Vertex 4 Xcoordinate
    64.56579229269782,        !- Vertex 4 Ycoordinate
    6.7;                      !- Vertex 4 Zcoordinate

FENESTRATIONSURFACE:DETAILED,
    Block Poly_10_Transport Storey 1 Wall 0009 window,    !- Name
    Window,                   !- Surface Type
    HSCWZ_Public&Industrial_2015_Win,    !- Construction Name
    Block Poly_10_Transport Storey 1 Wall 0009,    !- Building Surface Name
    ,                         !- Outside Boundary Condition Object
    autocalculate,            !- View Factor to Ground
    ,                         !- Frame and Divider Name
    1,                        !- Multiplier
    autocalculate,            !- Number of Vertices
    19.743352718322388,       !- Vertex 1 Xcoordinate
    64.52620438811742,        !- Vertex 1 Ycoordinate
    6.7,                      !- Vertex 1 Zcoordinate
    19.743352718322388,       !- Vertex 2 Xcoordinate
    64.52620438811742,        !- Vertex 2 Ycoordinate
    5.3,                      !- Vertex 2 Zcoordinate
    6.720820035008393,        !- Vertex 3 Xcoordinate
    26.16698063491471,        !- Vertex 3 Ycoordinate
    5.3,                      !- Vertex 3 Zcoordinate
    6.720820035008393,        !- Vertex 4 Xcoordinate
    26.16698063491471,        !- Vertex 4 Ycoordinate
    6.7;                      !- Vertex 4 Zcoordinate

FENESTRATIONSURFACE:DETAILED,
    Block Poly_10_Transport Storey 1 Wall 0010 window,    !- Name
    Window,                   !- Surface Type
    HSCWZ_Public&Industrial_2015_Win,    !- Construction Name
    Block Poly_10_Transport Storey 1 Wall 0010,    !- Building Surface Name
    ,                         !- Outside Boundary Condition Object
    autocalculate,            !- View Factor to Ground
    ,                         !- Frame and Divider Name
    1,                        !- Multiplier
    autocalculate,            !- Number of Vertices
    6.716818249678065,        !- Vertex 1 Xcoordinate
    26.147025463439757,       !- Vertex 1 Ycoordinate
    6.7,                      !- Vertex 1 Zcoordinate
    6.716818249678065,        !- Vertex 2 Xcoordinate
    26.147025463439757,       !- Vertex 2 Ycoordinate
    5.3,                      !- Vertex 2 Zcoordinate
    11.743783842995006,       !- Vertex 3 Xcoordinate
    24.635816609684145,       !- Vertex 3 Ycoordinate
    5.3,                      !- Vertex 3 Zcoordinate
    11.743783842995006,       !- Vertex 4 Xcoordinate
    24.635816609684145,       !- Vertex 4 Ycoordinate
    6.7;                      !- Vertex 4 Zcoordinate

FENESTRATIONSURFACE:DETAILED,
    Block Poly_10_Transport Storey 1 Wall 0011 window,    !- Name
    Window,                   !- Surface Type
    HSCWZ_Public&Industrial_2015_Win,    !- Construction Name
    Block Poly_10_Transport Storey 1 Wall 0011,    !- Building Surface Name
    ,                         !- Outside Boundary Condition Object
    autocalculate,            !- View Factor to Ground
    ,                         !- Frame and Divider Name
    1,                        !- Multiplier
    autocalculate,            !- Number of Vertices
    11.740426691869565,       !- Vertex 1 Xcoordinate
    24.62433381801727,        !- Vertex 1 Ycoordinate
    6.7,                      !- Vertex 1 Zcoordinate
    11.740426691869565,       !- Vertex 2 Xcoordinate
    24.62433381801727,        !- Vertex 2 Ycoordinate
    5.3,                      !- Vertex 2 Zcoordinate
    0.00587315,               !- Vertex 3 Xcoordinate
    3.1929249213610316,       !- Vertex 3 Ycoordinate
    5.3,                      !- Vertex 3 Zcoordinate
    0.00587315,               !- Vertex 4 Xcoordinate
    3.1929249213610316,       !- Vertex 4 Ycoordinate
    6.7;                      !- Vertex 4 Zcoordinate

FENESTRATIONSURFACE:DETAILED,
    Block Poly_10_Transport Storey 1 Wall 0012 window,    !- Name
    Window,                   !- Surface Type
    HSCWZ_Public&Industrial_2015_Win,    !- Construction Name
    Block Poly_10_Transport Storey 1 Wall 0012,    !- Building Surface Name
    ,                         !- Outside Boundary Condition Object
    autocalculate,            !- View Factor to Ground
    ,                         !- Frame and Divider Name
    1,                        !- Multiplier
    autocalculate,            !- Number of Vertices
    0.002742528,              !- Vertex 1 Xcoordinate
    3.1806073912365833,       !- Vertex 1 Ycoordinate
    6.7,                      !- Vertex 1 Zcoordinate
    0.002742528,              !- Vertex 2 Xcoordinate
    3.1806073912365833,       !- Vertex 2 Ycoordinate
    5.3,                      !- Vertex 2 Zcoordinate
    5.482314279814251,        !- Vertex 3 Xcoordinate
    0.001591099,              !- Vertex 3 Ycoordinate
    5.3,                      !- Vertex 3 Zcoordinate
    5.482314279814251,        !- Vertex 4 Xcoordinate
    0.001591099,              !- Vertex 4 Ycoordinate
    6.7;                      !- Vertex 4 Zcoordinate

FENESTRATIONSURFACE:DETAILED,
    Block Poly_10_Transport Storey 1 Wall 0013 window,    !- Name
    Window,                   !- Surface Type
    HSCWZ_Public&Industrial_2015_Win,    !- Construction Name
    Block Poly_10_Transport Storey 1 Wall 0013,    !- Building Surface Name
    ,                         !- Outside Boundary Condition Object
    autocalculate,            !- View Factor to Ground
    ,                         !- Frame and Divider Name
    1,                        !- Multiplier
    autocalculate,            !- Number of Vertices
    5.492298542694014,        !- Vertex 1 Xcoordinate
    0.006383097,              !- Vertex 1 Ycoordinate
    6.7,                      !- Vertex 1 Zcoordinate
    5.492298542694014,        !- Vertex 2 Xcoordinate
    0.006383097,              !- Vertex 2 Ycoordinate
    5.3,                      !- Vertex 2 Zcoordinate
    19.961284025050873,       !- Vertex 3 Xcoordinate
    12.759810365804473,       !- Vertex 3 Ycoordinate
    5.3,                      !- Vertex 3 Zcoordinate
    19.961284025050873,       !- Vertex 4 Xcoordinate
    12.759810365804473,       !- Vertex 4 Ycoordinate
    6.7;                      !- Vertex 4 Zcoordinate

FENESTRATIONSURFACE:DETAILED,
    Block Poly_10_Transport Storey 1 Wall 0014 window,    !- Name
    Window,                   !- Surface Type
    HSCWZ_Public&Industrial_2015_Win,    !- Construction Name
    Block Poly_10_Transport Storey 1 Wall 0014,    !- Building Surface Name
    ,                         !- Outside Boundary Condition Object
    autocalculate,            !- View Factor to Ground
    ,                         !- Frame and Divider Name
    1,                        !- Multiplier
    autocalculate,            !- Number of Vertices
    19.980350184645417,       !- Vertex 1 Xcoordinate
    12.779718065040885,       !- Vertex 1 Ycoordinate
    6.7,                      !- Vertex 1 Zcoordinate
    19.980350184645417,       !- Vertex 2 Xcoordinate
    12.779718065040885,       !- Vertex 2 Ycoordinate
    5.3,                      !- Vertex 2 Zcoordinate
    43.6055515721837,         !- Vertex 3 Xcoordinate
    39.801873870321785,       !- Vertex 3 Ycoordinate
    5.3,                      !- Vertex 3 Zcoordinate
    43.6055515721837,         !- Vertex 4 Xcoordinate
    39.801873870321785,       !- Vertex 4 Ycoordinate
    6.7;                      !- Vertex 4 Zcoordinate

FENESTRATIONSURFACE:DETAILED,
    Block Poly_10_Transport Storey 1 Wall 0015 window,    !- Name
    Window,                   !- Surface Type
    HSCWZ_Public&Industrial_2015_Win,    !- Construction Name
    Block Poly_10_Transport Storey 1 Wall 0015,    !- Building Surface Name
    ,                         !- Outside Boundary Condition Object
    autocalculate,            !- View Factor to Ground
    ,                         !- Frame and Divider Name
    1,                        !- Multiplier
    autocalculate,            !- Number of Vertices
    43.621634478755496,       !- Vertex 1 Xcoordinate
    39.823209790562515,       !- Vertex 1 Ycoordinate
    6.7,                      !- Vertex 1 Zcoordinate
    43.621634478755496,       !- Vertex 2 Xcoordinate
    39.823209790562515,       !- Vertex 2 Ycoordinate
    5.3,                      !- Vertex 2 Zcoordinate
    52.13008042167154,        !- Vertex 3 Xcoordinate
    55.430222626260246,       !- Vertex 3 Ycoordinate
    5.3,                      !- Vertex 3 Zcoordinate
    52.13008042167154,        !- Vertex 4 Xcoordinate
    55.430222626260246,       !- Vertex 4 Ycoordinate
    6.7;                      !- Vertex 4 Zcoordinate

FENESTRATIONSURFACE:DETAILED,
    Block Poly_10_Transport Storey 1 Wall 0016 window,    !- Name
    Window,                   !- Surface Type
    HSCWZ_Public&Industrial_2015_Win,    !- Construction Name
    Block Poly_10_Transport Storey 1 Wall 0016,    !- Building Surface Name
    ,                         !- Outside Boundary Condition Object
    autocalculate,            !- View Factor to Ground
    ,                         !- Frame and Divider Name
    1,                        !- Multiplier
    autocalculate,            !- Number of Vertices
    52.13764172552515,        !- Vertex 1 Xcoordinate
    55.445692519133445,       !- Vertex 1 Ycoordinate
    6.7,                      !- Vertex 1 Zcoordinate
    52.13764172552515,        !- Vertex 2 Xcoordinate
    55.445692519133445,       !- Vertex 2 Ycoordinate
    5.3,                      !- Vertex 2 Zcoordinate
    58.736680882122485,       !- Vertex 3 Xcoordinate
    70.74752564408118,        !- Vertex 3 Ycoordinate
    5.3,                      !- Vertex 3 Zcoordinate
    58.736680882122485,       !- Vertex 4 Xcoordinate
    70.74752564408118,        !- Vertex 4 Ycoordinate
    6.7;                      !- Vertex 4 Zcoordinate

FENESTRATIONSURFACE:DETAILED,
    Block Poly_10_Transport Storey 1 Wall 0017 window,    !- Name
    Window,                   !- Surface Type
    HSCWZ_Public&Industrial_2015_Win,    !- Construction Name
    Block Poly_10_Transport Storey 1 Wall 0017,    !- Building Surface Name
    ,                         !- Outside Boundary Condition Object
    autocalculate,            !- View Factor to Ground
    ,                         !- Frame and Divider Name
    1,                        !- Multiplier
    autocalculate,            !- Number of Vertices
    58.74168087117694,        !- Vertex 1 Xcoordinate
    70.76391883768095,        !- Vertex 1 Ycoordinate
    6.7,                      !- Vertex 1 Zcoordinate
    58.74168087117694,        !- Vertex 2 Xcoordinate
    70.76391883768095,        !- Vertex 2 Ycoordinate
    5.3,                      !- Vertex 2 Zcoordinate
    62.132619845384326,       !- Vertex 3 Xcoordinate
    88.21568652506964,        !- Vertex 3 Ycoordinate
    5.3,                      !- Vertex 3 Zcoordinate
    62.132619845384326,       !- Vertex 4 Xcoordinate
    88.21568652506964,        !- Vertex 4 Ycoordinate
    6.7;                      !- Vertex 4 Zcoordinate

FENESTRATIONSURFACE:DETAILED,
    Block Poly_10_Transport Storey 1 Wall 0018 window,    !- Name
    Window,                   !- Surface Type
    HSCWZ_Public&Industrial_2015_Win,    !- Construction Name
    Block Poly_10_Transport Storey 1 Wall 0018,    !- Building Surface Name
    ,                         !- Outside Boundary Condition Object
    autocalculate,            !- View Factor to Ground
    ,                         !- Frame and Divider Name
    1,                        !- Multiplier
    autocalculate,            !- Number of Vertices
    62.135296851385036,       !- Vertex 1 Xcoordinate
    88.23299963525706,        !- Vertex 1 Ycoordinate
    6.7,                      !- Vertex 1 Zcoordinate
    62.135296851385036,       !- Vertex 2 Xcoordinate
    88.23299963525706,        !- Vertex 2 Ycoordinate
    5.3,                      !- Vertex 2 Zcoordinate
    64.09301586659846,        !- Vertex 3 Xcoordinate
    105.37282610232732,       !- Vertex 3 Ycoordinate
    5.3,                      !- Vertex 3 Zcoordinate
    64.09301586659846,        !- Vertex 4 Xcoordinate
    105.37282610232732,       !- Vertex 4 Ycoordinate
    6.7;                      !- Vertex 4 Zcoordinate

FENESTRATIONSURFACE:DETAILED,
    Block Poly_10_Transport Storey 1 Wall 0019 window,    !- Name
    Window,                   !- Surface Type
    HSCWZ_Public&Industrial_2015_Win,    !- Construction Name
    Block Poly_10_Transport Storey 1 Wall 0019,    !- Building Surface Name
    ,                         !- Outside Boundary Condition Object
    autocalculate,            !- View Factor to Ground
    ,                         !- Frame and Divider Name
    1,                        !- Multiplier
    autocalculate,            !- Number of Vertices
    64.09562935655998,        !- Vertex 1 Xcoordinate
    105.37894228553563,       !- Vertex 1 Ycoordinate
    6.7,                      !- Vertex 1 Zcoordinate
    64.09562935655998,        !- Vertex 2 Xcoordinate
    105.37894228553563,       !- Vertex 2 Ycoordinate
    5.3,                      !- Vertex 2 Zcoordinate
    67.35966328445062,        !- Vertex 3 Xcoordinate
    100.45924986865208,       !- Vertex 3 Ycoordinate
    5.3,                      !- Vertex 3 Zcoordinate
    67.35966328445062,        !- Vertex 4 Xcoordinate
    100.45924986865208,       !- Vertex 4 Ycoordinate
    6.7;                      !- Vertex 4 Zcoordinate

FENESTRATIONSURFACE:DETAILED,
    Block Poly_10_Transport Storey 1 Wall 0020 window,    !- Name
    Window,                   !- Surface Type
    HSCWZ_Public&Industrial_2015_Win,    !- Construction Name
    Block Poly_10_Transport Storey 1 Wall 0020,    !- Building Surface Name
    ,                         !- Outside Boundary Condition Object
    autocalculate,            !- View Factor to Ground
    ,                         !- Frame and Divider Name
    1,                        !- Multiplier
    autocalculate,            !- Number of Vertices
    67.36280725186973,        !- Vertex 1 Xcoordinate
    100.45571287182602,       !- Vertex 1 Ycoordinate
    6.7,                      !- Vertex 1 Zcoordinate
    67.36280725186973,        !- Vertex 2 Xcoordinate
    100.45571287182602,       !- Vertex 2 Ycoordinate
    5.3,                      !- Vertex 2 Zcoordinate
    70.38042022735297,        !- Vertex 3 Xcoordinate
    98.308485630234,          !- Vertex 3 Ycoordinate
    5.3,                      !- Vertex 3 Zcoordinate
    70.38042022735297,        !- Vertex 4 Xcoordinate
    98.308485630234,          !- Vertex 4 Ycoordinate
    6.7;                      !- Vertex 4 Zcoordinate

FENESTRATIONSURFACE:DETAILED,
    Block Poly_10_Transport Storey 1 Wall 0021 window,    !- Name
    Window,                   !- Surface Type
    HSCWZ_Public&Industrial_2015_Win,    !- Construction Name
    Block Poly_10_Transport Storey 1 Wall 0021,    !- Building Surface Name
    ,                         !- Outside Boundary Condition Object
    autocalculate,            !- View Factor to Ground
    ,                         !- Frame and Divider Name
    1,                        !- Multiplier
    autocalculate,            !- Number of Vertices
    70.38655633752275,        !- Vertex 1 Xcoordinate
    98.30751162184728,        !- Vertex 1 Ycoordinate
    6.7,                      !- Vertex 1 Zcoordinate
    70.38655633752275,        !- Vertex 2 Xcoordinate
    98.30751162184728,        !- Vertex 2 Ycoordinate
    5.3,                      !- Vertex 2 Zcoordinate
    79.62889148126781,        !- Vertex 3 Xcoordinate
    98.50867010676907,        !- Vertex 3 Ycoordinate
    5.3,                      !- Vertex 3 Zcoordinate
    79.62889148126781,        !- Vertex 4 Xcoordinate
    98.50867010676907,        !- Vertex 4 Ycoordinate
    6.7;                      !- Vertex 4 Zcoordinate

FENESTRATIONSURFACE:DETAILED,
    Block Poly_10_Transport Storey 1 Wall 0022 window,    !- Name
    Window,                   !- Surface Type
    HSCWZ_Public&Industrial_2015_Win,    !- Construction Name
    Block Poly_10_Transport Storey 1 Wall 0022,    !- Building Surface Name
    ,                         !- Outside Boundary Condition Object
    autocalculate,            !- View Factor to Ground
    ,                         !- Frame and Divider Name
    1,                        !- Multiplier
    autocalculate,            !- Number of Vertices
    79.63578422716292,        !- Vertex 1 Xcoordinate
    98.51062341062539,        !- Vertex 1 Ycoordinate
    6.7,                      !- Vertex 1 Zcoordinate
    79.63578422716292,        !- Vertex 2 Xcoordinate
    98.51062341062539,        !- Vertex 2 Ycoordinate
    5.3,                      !- Vertex 2 Zcoordinate
    84.16515538184267,        !- Vertex 3 Xcoordinate
    102.21216603060998,       !- Vertex 3 Ycoordinate
    5.3,                      !- Vertex 3 Zcoordinate
    84.16515538184267,        !- Vertex 4 Xcoordinate
    102.21216603060998,       !- Vertex 4 Ycoordinate
    6.7;                      !- Vertex 4 Zcoordinate

FENESTRATIONSURFACE:DETAILED,
    Block Poly_10_Transport Storey 1 Wall 0023 window,    !- Name
    Window,                   !- Surface Type
    HSCWZ_Public&Industrial_2015_Win,    !- Construction Name
    Block Poly_10_Transport Storey 1 Wall 0023,    !- Building Surface Name
    ,                         !- Outside Boundary Condition Object
    autocalculate,            !- View Factor to Ground
    ,                         !- Frame and Divider Name
    1,                        !- Multiplier
    autocalculate,            !- Number of Vertices
    84.16854927469258,        !- Vertex 1 Xcoordinate
    102.21616462495713,       !- Vertex 1 Ycoordinate
    6.7,                      !- Vertex 1 Zcoordinate
    84.16854927469258,        !- Vertex 2 Xcoordinate
    102.21616462495713,       !- Vertex 2 Ycoordinate
    5.3,                      !- Vertex 2 Zcoordinate
    86.42017603413687,        !- Vertex 3 Xcoordinate
    106.50381351058768,       !- Vertex 3 Ycoordinate
    5.3,                      !- Vertex 3 Zcoordinate
    86.42017603413687,        !- Vertex 4 Xcoordinate
    106.50381351058768,       !- Vertex 4 Ycoordinate
    6.7;                      !- Vertex 4 Zcoordinate

FENESTRATIONSURFACE:DETAILED,
    Block Poly_10_Transport Storey 1 Wall 0024 window,    !- Name
    Window,                   !- Surface Type
    HSCWZ_Public&Industrial_2015_Win,    !- Construction Name
    Block Poly_10_Transport Storey 1 Wall 0024,    !- Building Surface Name
    ,                         !- Outside Boundary Condition Object
    autocalculate,            !- View Factor to Ground
    ,                         !- Frame and Divider Name
    1,                        !- Multiplier
    autocalculate,            !- Number of Vertices
    86.42179956696893,        !- Vertex 1 Xcoordinate
    106.51071982857701,       !- Vertex 1 Ycoordinate
    6.7,                      !- Vertex 1 Zcoordinate
    86.42179956696893,        !- Vertex 2 Xcoordinate
    106.51071982857701,       !- Vertex 2 Ycoordinate
    5.3,                      !- Vertex 2 Zcoordinate
    87.41399140595493,        !- Vertex 3 Xcoordinate
    116.02189428565163,       !- Vertex 3 Ycoordinate
    5.3,                      !- Vertex 3 Zcoordinate
    87.41399140595493,        !- Vertex 4 Xcoordinate
    116.02189428565163,       !- Vertex 4 Ycoordinate
    6.7;                      !- Vertex 4 Zcoordinate

FENESTRATIONSURFACE:DETAILED,
    Block Poly_10_Transport Storey 1 Wall 0025 window,    !- Name
    Window,                   !- Surface Type
    HSCWZ_Public&Industrial_2015_Win,    !- Construction Name
    Block Poly_10_Transport Storey 1 Wall 0025,    !- Building Surface Name
    ,                         !- Outside Boundary Condition Object
    autocalculate,            !- View Factor to Ground
    ,                         !- Frame and Divider Name
    1,                        !- Multiplier
    autocalculate,            !- Number of Vertices
    87.41365707024268,        !- Vertex 1 Xcoordinate
    116.03193272572267,       !- Vertex 1 Ycoordinate
    6.7,                      !- Vertex 1 Zcoordinate
    87.41365707024268,        !- Vertex 2 Xcoordinate
    116.03193272572267,       !- Vertex 2 Ycoordinate
    5.3,                      !- Vertex 2 Zcoordinate
    85.75346247818054,        !- Vertex 3 Xcoordinate
    126.57756153059867,       !- Vertex 3 Ycoordinate
    5.3,                      !- Vertex 3 Zcoordinate
    85.75346247818054,        !- Vertex 4 Xcoordinate
    126.57756153059867,       !- Vertex 4 Ycoordinate
    6.7;                      !- Vertex 4 Zcoordinate

FENESTRATIONSURFACE:DETAILED,
    Block Poly_10_Transport Storey 1 Wall 0026 window,    !- Name
    Window,                   !- Surface Type
    HSCWZ_Public&Industrial_2015_Win,    !- Construction Name
    Block Poly_10_Transport Storey 1 Wall 0026,    !- Building Surface Name
    ,                         !- Outside Boundary Condition Object
    autocalculate,            !- View Factor to Ground
    ,                         !- Frame and Divider Name
    1,                        !- Multiplier
    autocalculate,            !- Number of Vertices
    85.75094315932563,        !- Vertex 1 Xcoordinate
    126.58480379225081,       !- Vertex 1 Ycoordinate
    6.7,                      !- Vertex 1 Zcoordinate
    85.75094315932563,        !- Vertex 2 Xcoordinate
    126.58480379225081,       !- Vertex 2 Ycoordinate
    5.3,                      !- Vertex 2 Zcoordinate
    82.3775386792937,         !- Vertex 3 Xcoordinate
    130.509213768343,         !- Vertex 3 Ycoordinate
    5.3,                      !- Vertex 3 Zcoordinate
    82.3775386792937,         !- Vertex 4 Xcoordinate
    130.509213768343,         !- Vertex 4 Ycoordinate
    6.7;                      !- Vertex 4 Zcoordinate

FENESTRATIONSURFACE:DETAILED,
    Block Poly_10_Transport Storey 1 Wall 0027 window,    !- Name
    Window,                   !- Surface Type
    HSCWZ_Public&Industrial_2015_Win,    !- Construction Name
    Block Poly_10_Transport Storey 1 Wall 0027,    !- Building Surface Name
    ,                         !- Outside Boundary Condition Object
    autocalculate,            !- View Factor to Ground
    ,                         !- Frame and Divider Name
    1,                        !- Multiplier
    autocalculate,            !- Number of Vertices
    82.37452670072878,        !- Vertex 1 Xcoordinate
    130.511972801344,         !- Vertex 1 Ycoordinate
    6.7,                      !- Vertex 1 Zcoordinate
    82.37452670072878,        !- Vertex 2 Xcoordinate
    130.511972801344,         !- Vertex 2 Ycoordinate
    5.3,                      !- Vertex 2 Zcoordinate
    79.72999800803166,        !- Vertex 3 Xcoordinate
    132.10011076130579,       !- Vertex 3 Ycoordinate
    5.3,                      !- Vertex 3 Zcoordinate
    79.72999800803166,        !- Vertex 4 Xcoordinate
    132.10011076130579,       !- Vertex 4 Ycoordinate
    6.7;                      !- Vertex 4 Zcoordinate

FENESTRATIONSURFACE:DETAILED,
    Block Poly_10_Transport Storey 1 Wall 0028 window,    !- Name
    Window,                   !- Surface Type
    HSCWZ_Public&Industrial_2015_Win,    !- Construction Name
    Block Poly_10_Transport Storey 1 Wall 0028,    !- Building Surface Name
    ,                         !- Outside Boundary Condition Object
    autocalculate,            !- View Factor to Ground
    ,                         !- Frame and Divider Name
    1,                        !- Multiplier
    autocalculate,            !- Number of Vertices
    79.7252824045573,         !- Vertex 1 Xcoordinate
    132.10039939863142,       !- Vertex 1 Ycoordinate
    6.7,                      !- Vertex 1 Zcoordinate
    79.7252824045573,         !- Vertex 2 Xcoordinate
    132.10039939863142,       !- Vertex 2 Ycoordinate
    5.3,                      !- Vertex 2 Zcoordinate
    72.94803535549718,        !- Vertex 3 Xcoordinate
    131.088958815285,         !- Vertex 3 Ycoordinate
    5.3,                      !- Vertex 3 Zcoordinate
    72.94803535549718,        !- Vertex 4 Xcoordinate
    131.088958815285,         !- Vertex 4 Ycoordinate
    6.7;                      !- Vertex 4 Zcoordinate

FENESTRATIONSURFACE:DETAILED,
    Block Poly_10_Transport Storey 1 Wall 0029 window,    !- Name
    Window,                   !- Surface Type
    HSCWZ_Public&Industrial_2015_Win,    !- Construction Name
    Block Poly_10_Transport Storey 1 Wall 0029,    !- Building Surface Name
    ,                         !- Outside Boundary Condition Object
    autocalculate,            !- View Factor to Ground
    ,                         !- Frame and Divider Name
    1,                        !- Multiplier
    autocalculate,            !- Number of Vertices
    72.94237639118568,        !- Vertex 1 Xcoordinate
    131.08659996733397,       !- Vertex 1 Ycoordinate
    6.7,                      !- Vertex 1 Zcoordinate
    72.94237639118568,        !- Vertex 2 Xcoordinate
    131.08659996733397,       !- Vertex 2 Ycoordinate
    5.3,                      !- Vertex 2 Zcoordinate
    68.41301274586819,        !- Vertex 3 Xcoordinate
    127.38506234448079,       !- Vertex 3 Ycoordinate
    5.3,                      !- Vertex 3 Zcoordinate
    68.41301274586819,        !- Vertex 4 Xcoordinate
    127.38506234448079,       !- Vertex 4 Ycoordinate
    6.7;                      !- Vertex 4 Zcoordinate

FENESTRATIONSURFACE:DETAILED,
    Block Poly_10_Transport Storey 1 Wall 0030 window,    !- Name
    Window,                   !- Surface Type
    HSCWZ_Public&Industrial_2015_Win,    !- Construction Name
    Block Poly_10_Transport Storey 1 Wall 0030,    !- Building Surface Name
    ,                         !- Outside Boundary Condition Object
    autocalculate,            !- View Factor to Ground
    ,                         !- Frame and Divider Name
    1,                        !- Multiplier
    autocalculate,            !- Number of Vertices
    68.40967359607271,        !- Vertex 1 Xcoordinate
    127.38156189097326,       !- Vertex 1 Ycoordinate
    6.7,                      !- Vertex 1 Zcoordinate
    68.40967359607271,        !- Vertex 2 Xcoordinate
    127.38156189097326,       !- Vertex 2 Ycoordinate
    5.3,                      !- Vertex 2 Zcoordinate
    66.26741595003591,        !- Vertex 3 Xcoordinate
    124.08919340578606,       !- Vertex 3 Ycoordinate
    5.3,                      !- Vertex 3 Zcoordinate
    66.26741595003591,        !- Vertex 4 Xcoordinate
    124.08919340578606,       !- Vertex 4 Ycoordinate
    6.7;                      !- Vertex 4 Zcoordinate

FENESTRATIONSURFACE:DETAILED,
    Block Poly_10_Transport Storey 1 Wall 0031 window,    !- Name
    Window,                   !- Surface Type
    HSCWZ_Public&Industrial_2015_Win,    !- Construction Name
    Block Poly_10_Transport Storey 1 Wall 0031,    !- Building Surface Name
    ,                         !- Outside Boundary Condition Object
    autocalculate,            !- View Factor to Ground
    ,                         !- Frame and Divider Name
    1,                        !- Multiplier
    autocalculate,            !- Number of Vertices
    66.26661588183391,        !- Vertex 1 Xcoordinate
    124.08992540911515,       !- Vertex 1 Ycoordinate
    6.7,                      !- Vertex 1 Zcoordinate
    66.26661588183391,        !- Vertex 2 Xcoordinate
    124.08992540911515,       !- Vertex 2 Ycoordinate
    5.3,                      !- Vertex 2 Zcoordinate
    66.81033726029078,        !- Vertex 3 Xcoordinate
    128.84483654582195,       !- Vertex 3 Ycoordinate
    5.3,                      !- Vertex 3 Zcoordinate
    66.81033726029078,        !- Vertex 4 Xcoordinate
    128.84483654582195,       !- Vertex 4 Ycoordinate
    6.7;                      !- Vertex 4 Zcoordinate

FENESTRATIONSURFACE:DETAILED,
    Block Poly_10_Transport Storey 2 Wall 0001 window,    !- Name
    Window,                   !- Surface Type
    HSCWZ_Public&Industrial_2015_Win,    !- Construction Name
    Block Poly_10_Transport Storey 2 Wall 0001,    !- Building Surface Name
    ,                         !- Outside Boundary Condition Object
    autocalculate,            !- View Factor to Ground
    ,                         !- Frame and Divider Name
    1,                        !- Multiplier
    autocalculate,            !- Number of Vertices
    66.80897665694737,        !- Vertex 1 Xcoordinate
    128.85982324562568,       !- Vertex 1 Ycoordinate
    10.7,                     !- Vertex 1 Zcoordinate
    66.80897665694737,        !- Vertex 2 Xcoordinate
    128.85982324562568,       !- Vertex 2 Ycoordinate
    9.3,                      !- Vertex 2 Zcoordinate
    63.546769798368594,       !- Vertex 3 Xcoordinate
    154.0483383167761,        !- Vertex 3 Ycoordinate
    9.3,                      !- Vertex 3 Zcoordinate
    63.546769798368594,       !- Vertex 4 Xcoordinate
    154.0483383167761,        !- Vertex 4 Ycoordinate
    10.7;                     !- Vertex 4 Zcoordinate

FENESTRATIONSURFACE:DETAILED,
    Block Poly_10_Transport Storey 2 Wall 0002 window,    !- Name
    Window,                   !- Surface Type
    HSCWZ_Public&Industrial_2015_Win,    !- Construction Name
    Block Poly_10_Transport Storey 2 Wall 0002,    !- Building Surface Name
    ,                         !- Outside Boundary Condition Object
    autocalculate,            !- View Factor to Ground
    ,                         !- Frame and Divider Name
    1,                        !- Multiplier
    autocalculate,            !- Number of Vertices
    63.543588831320434,       !- Vertex 1 Xcoordinate
    154.06606714951945,       !- Vertex 1 Ycoordinate
    10.7,                     !- Vertex 1 Zcoordinate
    63.543588831320434,       !- Vertex 2 Xcoordinate
    154.06606714951945,       !- Vertex 2 Ycoordinate
    9.3,                      !- Vertex 2 Zcoordinate
    60.45022352767593,        !- Vertex 3 Xcoordinate
    164.29975989960926,       !- Vertex 3 Ycoordinate
    9.3,                      !- Vertex 3 Zcoordinate
    60.45022352767593,        !- Vertex 4 Xcoordinate
    164.29975989960926,       !- Vertex 4 Ycoordinate
    10.7;                     !- Vertex 4 Zcoordinate

FENESTRATIONSURFACE:DETAILED,
    Block Poly_10_Transport Storey 2 Wall 0003 window,    !- Name
    Window,                   !- Surface Type
    HSCWZ_Public&Industrial_2015_Win,    !- Construction Name
    Block Poly_10_Transport Storey 2 Wall 0003,    !- Building Surface Name
    ,                         !- Outside Boundary Condition Object
    autocalculate,            !- View Factor to Ground
    ,                         !- Frame and Divider Name
    1,                        !- Multiplier
    autocalculate,            !- Number of Vertices
    60.44641840140798,        !- Vertex 1 Xcoordinate
    164.31045737049658,       !- Vertex 1 Ycoordinate
    10.7,                     !- Vertex 1 Zcoordinate
    60.44641840140798,        !- Vertex 2 Xcoordinate
    164.31045737049658,       !- Vertex 2 Ycoordinate
    9.3,                      !- Vertex 2 Zcoordinate
    55.93714142168642,        !- Vertex 3 Xcoordinate
    175.45031145329472,       !- Vertex 3 Ycoordinate
    9.3,                      !- Vertex 3 Zcoordinate
    55.93714142168642,        !- Vertex 4 Xcoordinate
    175.45031145329472,       !- Vertex 4 Ycoordinate
    10.7;                     !- Vertex 4 Zcoordinate

FENESTRATIONSURFACE:DETAILED,
    Block Poly_10_Transport Storey 2 Wall 0004 window,    !- Name
    Window,                   !- Surface Type
    HSCWZ_Public&Industrial_2015_Win,    !- Construction Name
    Block Poly_10_Transport Storey 2 Wall 0004,    !- Building Surface Name
    ,                         !- Outside Boundary Condition Object
    autocalculate,            !- View Factor to Ground
    ,                         !- Frame and Divider Name
    1,                        !- Multiplier
    autocalculate,            !- Number of Vertices
    55.92644801071478,        !- Vertex 1 Xcoordinate
    175.4560066668971,        !- Vertex 1 Ycoordinate
    10.7,                     !- Vertex 1 Zcoordinate
    55.92644801071478,        !- Vertex 2 Xcoordinate
    175.4560066668971,        !- Vertex 2 Ycoordinate
    9.3,                      !- Vertex 2 Zcoordinate
    39.070289869102595,       !- Vertex 3 Xcoordinate
    175.69518936167447,       !- Vertex 3 Ycoordinate
    9.3,                      !- Vertex 3 Zcoordinate
    39.070289869102595,       !- Vertex 4 Xcoordinate
    175.69518936167447,       !- Vertex 4 Ycoordinate
    10.7;                     !- Vertex 4 Zcoordinate

FENESTRATIONSURFACE:DETAILED,
    Block Poly_10_Transport Storey 2 Wall 0005 window,    !- Name
    Window,                   !- Surface Type
    HSCWZ_Public&Industrial_2015_Win,    !- Construction Name
    Block Poly_10_Transport Storey 2 Wall 0005,    !- Building Surface Name
    ,                         !- Outside Boundary Condition Object
    autocalculate,            !- View Factor to Ground
    ,                         !- Frame and Divider Name
    1,                        !- Multiplier
    autocalculate,            !- Number of Vertices
    39.06153276445667,        !- Vertex 1 Xcoordinate
    175.69287449041963,       !- Vertex 1 Ycoordinate
    10.7,                     !- Vertex 1 Zcoordinate
    39.06153276445667,        !- Vertex 2 Xcoordinate
    175.69287449041963,       !- Vertex 2 Ycoordinate
    9.3,                      !- Vertex 2 Zcoordinate
    38.420995823521196,       !- Vertex 3 Xcoordinate
    170.8285790284665,        !- Vertex 3 Ycoordinate
    9.3,                      !- Vertex 3 Zcoordinate
    38.420995823521196,       !- Vertex 4 Xcoordinate
    170.8285790284665,        !- Vertex 4 Ycoordinate
    10.7;                     !- Vertex 4 Zcoordinate

FENESTRATIONSURFACE:DETAILED,
    Block Poly_10_Transport Storey 2 Wall 0006 window,    !- Name
    Window,                   !- Surface Type
    HSCWZ_Public&Industrial_2015_Win,    !- Construction Name
    Block Poly_10_Transport Storey 2 Wall 0006,    !- Building Surface Name
    ,                         !- Outside Boundary Condition Object
    autocalculate,            !- View Factor to Ground
    ,                         !- Frame and Divider Name
    1,                        !- Multiplier
    autocalculate,            !- Number of Vertices
    38.41813960677412,        !- Vertex 1 Xcoordinate
    170.82551521077963,       !- Vertex 1 Ycoordinate
    10.7,                     !- Vertex 1 Zcoordinate
    38.41813960677412,        !- Vertex 2 Xcoordinate
    170.82551521077963,       !- Vertex 2 Ycoordinate
    9.3,                      !- Vertex 2 Zcoordinate
    33.351955487041934,       !- Vertex 3 Xcoordinate
    169.56830293437255,       !- Vertex 3 Ycoordinate
    9.3,                      !- Vertex 3 Zcoordinate
    33.351955487041934,       !- Vertex 4 Xcoordinate
    169.56830293437255,       !- Vertex 4 Ycoordinate
    10.7;                     !- Vertex 4 Zcoordinate

FENESTRATIONSURFACE:DETAILED,
    Block Poly_10_Transport Storey 2 Wall 0007 window,    !- Name
    Window,                   !- Surface Type
    HSCWZ_Public&Industrial_2015_Win,    !- Construction Name
    Block Poly_10_Transport Storey 2 Wall 0007,    !- Building Surface Name
    ,                         !- Outside Boundary Condition Object
    autocalculate,            !- View Factor to Ground
    ,                         !- Frame and Divider Name
    1,                        !- Multiplier
    autocalculate,            !- Number of Vertices
    33.34729543640936,        !- Vertex 1 Xcoordinate
    169.535551657642,         !- Vertex 1 Ycoordinate
    10.7,                     !- Vertex 1 Zcoordinate
    33.34729543640936,        !- Vertex 2 Xcoordinate
    169.535551657642,         !- Vertex 2 Ycoordinate
    9.3,                      !- Vertex 2 Zcoordinate
    29.102698392251448,       !- Vertex 3 Xcoordinate
    105.35571302639065,       !- Vertex 3 Ycoordinate
    9.3,                      !- Vertex 3 Zcoordinate
    29.102698392251448,       !- Vertex 4 Xcoordinate
    105.35571302639065,       !- Vertex 4 Ycoordinate
    10.7;                     !- Vertex 4 Zcoordinate

FENESTRATIONSURFACE:DETAILED,
    Block Poly_10_Transport Storey 2 Wall 0008 window,    !- Name
    Window,                   !- Surface Type
    HSCWZ_Public&Industrial_2015_Win,    !- Construction Name
    Block Poly_10_Transport Storey 2 Wall 0008,    !- Building Surface Name
    ,                         !- Outside Boundary Condition Object
    autocalculate,            !- View Factor to Ground
    ,                         !- Frame and Divider Name
    1,                        !- Multiplier
    autocalculate,            !- Number of Vertices
    29.095898617572995,       !- Vertex 1 Xcoordinate
    105.30320189114055,       !- Vertex 1 Ycoordinate
    10.7,                     !- Vertex 1 Zcoordinate
    29.095898617572995,       !- Vertex 2 Xcoordinate
    105.30320189114055,       !- Vertex 2 Ycoordinate
    9.3,                      !- Vertex 2 Zcoordinate
    19.7545458541816,         !- Vertex 3 Xcoordinate
    64.56579229269782,        !- Vertex 3 Ycoordinate
    9.3,                      !- Vertex 3 Zcoordinate
    19.7545458541816,         !- Vertex 4 Xcoordinate
    64.56579229269782,        !- Vertex 4 Ycoordinate
    10.7;                     !- Vertex 4 Zcoordinate

FENESTRATIONSURFACE:DETAILED,
    Block Poly_10_Transport Storey 2 Wall 0009 window,    !- Name
    Window,                   !- Surface Type
    HSCWZ_Public&Industrial_2015_Win,    !- Construction Name
    Block Poly_10_Transport Storey 2 Wall 0009,    !- Building Surface Name
    ,                         !- Outside Boundary Condition Object
    autocalculate,            !- View Factor to Ground
    ,                         !- Frame and Divider Name
    1,                        !- Multiplier
    autocalculate,            !- Number of Vertices
    19.743352718322388,       !- Vertex 1 Xcoordinate
    64.52620438811742,        !- Vertex 1 Ycoordinate
    10.7,                     !- Vertex 1 Zcoordinate
    19.743352718322388,       !- Vertex 2 Xcoordinate
    64.52620438811742,        !- Vertex 2 Ycoordinate
    9.3,                      !- Vertex 2 Zcoordinate
    6.720820035008393,        !- Vertex 3 Xcoordinate
    26.16698063491471,        !- Vertex 3 Ycoordinate
    9.3,                      !- Vertex 3 Zcoordinate
    6.720820035008393,        !- Vertex 4 Xcoordinate
    26.16698063491471,        !- Vertex 4 Ycoordinate
    10.7;                     !- Vertex 4 Zcoordinate

FENESTRATIONSURFACE:DETAILED,
    Block Poly_10_Transport Storey 2 Wall 0010 window,    !- Name
    Window,                   !- Surface Type
    HSCWZ_Public&Industrial_2015_Win,    !- Construction Name
    Block Poly_10_Transport Storey 2 Wall 0010,    !- Building Surface Name
    ,                         !- Outside Boundary Condition Object
    autocalculate,            !- View Factor to Ground
    ,                         !- Frame and Divider Name
    1,                        !- Multiplier
    autocalculate,            !- Number of Vertices
    6.716818249678065,        !- Vertex 1 Xcoordinate
    26.147025463439757,       !- Vertex 1 Ycoordinate
    10.7,                     !- Vertex 1 Zcoordinate
    6.716818249678065,        !- Vertex 2 Xcoordinate
    26.147025463439757,       !- Vertex 2 Ycoordinate
    9.3,                      !- Vertex 2 Zcoordinate
    11.743783842995006,       !- Vertex 3 Xcoordinate
    24.635816609684145,       !- Vertex 3 Ycoordinate
    9.3,                      !- Vertex 3 Zcoordinate
    11.743783842995006,       !- Vertex 4 Xcoordinate
    24.635816609684145,       !- Vertex 4 Ycoordinate
    10.7;                     !- Vertex 4 Zcoordinate

FENESTRATIONSURFACE:DETAILED,
    Block Poly_10_Transport Storey 2 Wall 0011 window,    !- Name
    Window,                   !- Surface Type
    HSCWZ_Public&Industrial_2015_Win,    !- Construction Name
    Block Poly_10_Transport Storey 2 Wall 0011,    !- Building Surface Name
    ,                         !- Outside Boundary Condition Object
    autocalculate,            !- View Factor to Ground
    ,                         !- Frame and Divider Name
    1,                        !- Multiplier
    autocalculate,            !- Number of Vertices
    11.740426691869565,       !- Vertex 1 Xcoordinate
    24.62433381801727,        !- Vertex 1 Ycoordinate
    10.7,                     !- Vertex 1 Zcoordinate
    11.740426691869565,       !- Vertex 2 Xcoordinate
    24.62433381801727,        !- Vertex 2 Ycoordinate
    9.3,                      !- Vertex 2 Zcoordinate
    0.00587315,               !- Vertex 3 Xcoordinate
    3.1929249213610316,       !- Vertex 3 Ycoordinate
    9.3,                      !- Vertex 3 Zcoordinate
    0.00587315,               !- Vertex 4 Xcoordinate
    3.1929249213610316,       !- Vertex 4 Ycoordinate
    10.7;                     !- Vertex 4 Zcoordinate

FENESTRATIONSURFACE:DETAILED,
    Block Poly_10_Transport Storey 2 Wall 0012 window,    !- Name
    Window,                   !- Surface Type
    HSCWZ_Public&Industrial_2015_Win,    !- Construction Name
    Block Poly_10_Transport Storey 2 Wall 0012,    !- Building Surface Name
    ,                         !- Outside Boundary Condition Object
    autocalculate,            !- View Factor to Ground
    ,                         !- Frame and Divider Name
    1,                        !- Multiplier
    autocalculate,            !- Number of Vertices
    0.002742528,              !- Vertex 1 Xcoordinate
    3.1806073912365833,       !- Vertex 1 Ycoordinate
    10.7,                     !- Vertex 1 Zcoordinate
    0.002742528,              !- Vertex 2 Xcoordinate
    3.1806073912365833,       !- Vertex 2 Ycoordinate
    9.3,                      !- Vertex 2 Zcoordinate
    5.482314279814251,        !- Vertex 3 Xcoordinate
    0.001591099,              !- Vertex 3 Ycoordinate
    9.3,                      !- Vertex 3 Zcoordinate
    5.482314279814251,        !- Vertex 4 Xcoordinate
    0.001591099,              !- Vertex 4 Ycoordinate
    10.7;                     !- Vertex 4 Zcoordinate

FENESTRATIONSURFACE:DETAILED,
    Block Poly_10_Transport Storey 2 Wall 0013 window,    !- Name
    Window,                   !- Surface Type
    HSCWZ_Public&Industrial_2015_Win,    !- Construction Name
    Block Poly_10_Transport Storey 2 Wall 0013,    !- Building Surface Name
    ,                         !- Outside Boundary Condition Object
    autocalculate,            !- View Factor to Ground
    ,                         !- Frame and Divider Name
    1,                        !- Multiplier
    autocalculate,            !- Number of Vertices
    5.492298542694014,        !- Vertex 1 Xcoordinate
    0.006383097,              !- Vertex 1 Ycoordinate
    10.7,                     !- Vertex 1 Zcoordinate
    5.492298542694014,        !- Vertex 2 Xcoordinate
    0.006383097,              !- Vertex 2 Ycoordinate
    9.3,                      !- Vertex 2 Zcoordinate
    19.961284025050873,       !- Vertex 3 Xcoordinate
    12.759810365804473,       !- Vertex 3 Ycoordinate
    9.3,                      !- Vertex 3 Zcoordinate
    19.961284025050873,       !- Vertex 4 Xcoordinate
    12.759810365804473,       !- Vertex 4 Ycoordinate
    10.7;                     !- Vertex 4 Zcoordinate

FENESTRATIONSURFACE:DETAILED,
    Block Poly_10_Transport Storey 2 Wall 0014 window,    !- Name
    Window,                   !- Surface Type
    HSCWZ_Public&Industrial_2015_Win,    !- Construction Name
    Block Poly_10_Transport Storey 2 Wall 0014,    !- Building Surface Name
    ,                         !- Outside Boundary Condition Object
    autocalculate,            !- View Factor to Ground
    ,                         !- Frame and Divider Name
    1,                        !- Multiplier
    autocalculate,            !- Number of Vertices
    19.980350184645417,       !- Vertex 1 Xcoordinate
    12.779718065040885,       !- Vertex 1 Ycoordinate
    10.7,                     !- Vertex 1 Zcoordinate
    19.980350184645417,       !- Vertex 2 Xcoordinate
    12.779718065040885,       !- Vertex 2 Ycoordinate
    9.3,                      !- Vertex 2 Zcoordinate
    43.6055515721837,         !- Vertex 3 Xcoordinate
    39.801873870321785,       !- Vertex 3 Ycoordinate
    9.3,                      !- Vertex 3 Zcoordinate
    43.6055515721837,         !- Vertex 4 Xcoordinate
    39.801873870321785,       !- Vertex 4 Ycoordinate
    10.7;                     !- Vertex 4 Zcoordinate

FENESTRATIONSURFACE:DETAILED,
    Block Poly_10_Transport Storey 2 Wall 0015 window,    !- Name
    Window,                   !- Surface Type
    HSCWZ_Public&Industrial_2015_Win,    !- Construction Name
    Block Poly_10_Transport Storey 2 Wall 0015,    !- Building Surface Name
    ,                         !- Outside Boundary Condition Object
    autocalculate,            !- View Factor to Ground
    ,                         !- Frame and Divider Name
    1,                        !- Multiplier
    autocalculate,            !- Number of Vertices
    43.621634478755496,       !- Vertex 1 Xcoordinate
    39.823209790562515,       !- Vertex 1 Ycoordinate
    10.7,                     !- Vertex 1 Zcoordinate
    43.621634478755496,       !- Vertex 2 Xcoordinate
    39.823209790562515,       !- Vertex 2 Ycoordinate
    9.3,                      !- Vertex 2 Zcoordinate
    52.13008042167154,        !- Vertex 3 Xcoordinate
    55.430222626260246,       !- Vertex 3 Ycoordinate
    9.3,                      !- Vertex 3 Zcoordinate
    52.13008042167154,        !- Vertex 4 Xcoordinate
    55.430222626260246,       !- Vertex 4 Ycoordinate
    10.7;                     !- Vertex 4 Zcoordinate

FENESTRATIONSURFACE:DETAILED,
    Block Poly_10_Transport Storey 2 Wall 0016 window,    !- Name
    Window,                   !- Surface Type
    HSCWZ_Public&Industrial_2015_Win,    !- Construction Name
    Block Poly_10_Transport Storey 2 Wall 0016,    !- Building Surface Name
    ,                         !- Outside Boundary Condition Object
    autocalculate,            !- View Factor to Ground
    ,                         !- Frame and Divider Name
    1,                        !- Multiplier
    autocalculate,            !- Number of Vertices
    52.13764172552515,        !- Vertex 1 Xcoordinate
    55.445692519133445,       !- Vertex 1 Ycoordinate
    10.7,                     !- Vertex 1 Zcoordinate
    52.13764172552515,        !- Vertex 2 Xcoordinate
    55.445692519133445,       !- Vertex 2 Ycoordinate
    9.3,                      !- Vertex 2 Zcoordinate
    58.736680882122485,       !- Vertex 3 Xcoordinate
    70.74752564408118,        !- Vertex 3 Ycoordinate
    9.3,                      !- Vertex 3 Zcoordinate
    58.736680882122485,       !- Vertex 4 Xcoordinate
    70.74752564408118,        !- Vertex 4 Ycoordinate
    10.7;                     !- Vertex 4 Zcoordinate

FENESTRATIONSURFACE:DETAILED,
    Block Poly_10_Transport Storey 2 Wall 0017 window,    !- Name
    Window,                   !- Surface Type
    HSCWZ_Public&Industrial_2015_Win,    !- Construction Name
    Block Poly_10_Transport Storey 2 Wall 0017,    !- Building Surface Name
    ,                         !- Outside Boundary Condition Object
    autocalculate,            !- View Factor to Ground
    ,                         !- Frame and Divider Name
    1,                        !- Multiplier
    autocalculate,            !- Number of Vertices
    58.74168087117694,        !- Vertex 1 Xcoordinate
    70.76391883768095,        !- Vertex 1 Ycoordinate
    10.7,                     !- Vertex 1 Zcoordinate
    58.74168087117694,        !- Vertex 2 Xcoordinate
    70.76391883768095,        !- Vertex 2 Ycoordinate
    9.3,                      !- Vertex 2 Zcoordinate
    62.132619845384326,       !- Vertex 3 Xcoordinate
    88.21568652506964,        !- Vertex 3 Ycoordinate
    9.3,                      !- Vertex 3 Zcoordinate
    62.132619845384326,       !- Vertex 4 Xcoordinate
    88.21568652506964,        !- Vertex 4 Ycoordinate
    10.7;                     !- Vertex 4 Zcoordinate

FENESTRATIONSURFACE:DETAILED,
    Block Poly_10_Transport Storey 2 Wall 0018 window,    !- Name
    Window,                   !- Surface Type
    HSCWZ_Public&Industrial_2015_Win,    !- Construction Name
    Block Poly_10_Transport Storey 2 Wall 0018,    !- Building Surface Name
    ,                         !- Outside Boundary Condition Object
    autocalculate,            !- View Factor to Ground
    ,                         !- Frame and Divider Name
    1,                        !- Multiplier
    autocalculate,            !- Number of Vertices
    62.135296851385036,       !- Vertex 1 Xcoordinate
    88.23299963525706,        !- Vertex 1 Ycoordinate
    10.7,                     !- Vertex 1 Zcoordinate
    62.135296851385036,       !- Vertex 2 Xcoordinate
    88.23299963525706,        !- Vertex 2 Ycoordinate
    9.3,                      !- Vertex 2 Zcoordinate
    64.09301586659846,        !- Vertex 3 Xcoordinate
    105.37282610232732,       !- Vertex 3 Ycoordinate
    9.3,                      !- Vertex 3 Zcoordinate
    64.09301586659846,        !- Vertex 4 Xcoordinate
    105.37282610232732,       !- Vertex 4 Ycoordinate
    10.7;                     !- Vertex 4 Zcoordinate

FENESTRATIONSURFACE:DETAILED,
    Block Poly_10_Transport Storey 2 Wall 0019 window,    !- Name
    Window,                   !- Surface Type
    HSCWZ_Public&Industrial_2015_Win,    !- Construction Name
    Block Poly_10_Transport Storey 2 Wall 0019,    !- Building Surface Name
    ,                         !- Outside Boundary Condition Object
    autocalculate,            !- View Factor to Ground
    ,                         !- Frame and Divider Name
    1,                        !- Multiplier
    autocalculate,            !- Number of Vertices
    64.09562935655998,        !- Vertex 1 Xcoordinate
    105.37894228553563,       !- Vertex 1 Ycoordinate
    10.7,                     !- Vertex 1 Zcoordinate
    64.09562935655998,        !- Vertex 2 Xcoordinate
    105.37894228553563,       !- Vertex 2 Ycoordinate
    9.3,                      !- Vertex 2 Zcoordinate
    67.35966328445062,        !- Vertex 3 Xcoordinate
    100.45924986865208,       !- Vertex 3 Ycoordinate
    9.3,                      !- Vertex 3 Zcoordinate
    67.35966328445062,        !- Vertex 4 Xcoordinate
    100.45924986865208,       !- Vertex 4 Ycoordinate
    10.7;                     !- Vertex 4 Zcoordinate

FENESTRATIONSURFACE:DETAILED,
    Block Poly_10_Transport Storey 2 Wall 0020 window,    !- Name
    Window,                   !- Surface Type
    HSCWZ_Public&Industrial_2015_Win,    !- Construction Name
    Block Poly_10_Transport Storey 2 Wall 0020,    !- Building Surface Name
    ,                         !- Outside Boundary Condition Object
    autocalculate,            !- View Factor to Ground
    ,                         !- Frame and Divider Name
    1,                        !- Multiplier
    autocalculate,            !- Number of Vertices
    67.36280725186973,        !- Vertex 1 Xcoordinate
    100.45571287182602,       !- Vertex 1 Ycoordinate
    10.7,                     !- Vertex 1 Zcoordinate
    67.36280725186973,        !- Vertex 2 Xcoordinate
    100.45571287182602,       !- Vertex 2 Ycoordinate
    9.3,                      !- Vertex 2 Zcoordinate
    70.38042022735297,        !- Vertex 3 Xcoordinate
    98.308485630234,          !- Vertex 3 Ycoordinate
    9.3,                      !- Vertex 3 Zcoordinate
    70.38042022735297,        !- Vertex 4 Xcoordinate
    98.308485630234,          !- Vertex 4 Ycoordinate
    10.7;                     !- Vertex 4 Zcoordinate

FENESTRATIONSURFACE:DETAILED,
    Block Poly_10_Transport Storey 2 Wall 0021 window,    !- Name
    Window,                   !- Surface Type
    HSCWZ_Public&Industrial_2015_Win,    !- Construction Name
    Block Poly_10_Transport Storey 2 Wall 0021,    !- Building Surface Name
    ,                         !- Outside Boundary Condition Object
    autocalculate,            !- View Factor to Ground
    ,                         !- Frame and Divider Name
    1,                        !- Multiplier
    autocalculate,            !- Number of Vertices
    70.38655633752275,        !- Vertex 1 Xcoordinate
    98.30751162184728,        !- Vertex 1 Ycoordinate
    10.7,                     !- Vertex 1 Zcoordinate
    70.38655633752275,        !- Vertex 2 Xcoordinate
    98.30751162184728,        !- Vertex 2 Ycoordinate
    9.3,                      !- Vertex 2 Zcoordinate
    79.62889148126781,        !- Vertex 3 Xcoordinate
    98.50867010676907,        !- Vertex 3 Ycoordinate
    9.3,                      !- Vertex 3 Zcoordinate
    79.62889148126781,        !- Vertex 4 Xcoordinate
    98.50867010676907,        !- Vertex 4 Ycoordinate
    10.7;                     !- Vertex 4 Zcoordinate

FENESTRATIONSURFACE:DETAILED,
    Block Poly_10_Transport Storey 2 Wall 0022 window,    !- Name
    Window,                   !- Surface Type
    HSCWZ_Public&Industrial_2015_Win,    !- Construction Name
    Block Poly_10_Transport Storey 2 Wall 0022,    !- Building Surface Name
    ,                         !- Outside Boundary Condition Object
    autocalculate,            !- View Factor to Ground
    ,                         !- Frame and Divider Name
    1,                        !- Multiplier
    autocalculate,            !- Number of Vertices
    79.63578422716292,        !- Vertex 1 Xcoordinate
    98.51062341062539,        !- Vertex 1 Ycoordinate
    10.7,                     !- Vertex 1 Zcoordinate
    79.63578422716292,        !- Vertex 2 Xcoordinate
    98.51062341062539,        !- Vertex 2 Ycoordinate
    9.3,                      !- Vertex 2 Zcoordinate
    84.16515538184267,        !- Vertex 3 Xcoordinate
    102.21216603060998,       !- Vertex 3 Ycoordinate
    9.3,                      !- Vertex 3 Zcoordinate
    84.16515538184267,        !- Vertex 4 Xcoordinate
    102.21216603060998,       !- Vertex 4 Ycoordinate
    10.7;                     !- Vertex 4 Zcoordinate

FENESTRATIONSURFACE:DETAILED,
    Block Poly_10_Transport Storey 2 Wall 0023 window,    !- Name
    Window,                   !- Surface Type
    HSCWZ_Public&Industrial_2015_Win,    !- Construction Name
    Block Poly_10_Transport Storey 2 Wall 0023,    !- Building Surface Name
    ,                         !- Outside Boundary Condition Object
    autocalculate,            !- View Factor to Ground
    ,                         !- Frame and Divider Name
    1,                        !- Multiplier
    autocalculate,            !- Number of Vertices
    84.16854927469258,        !- Vertex 1 Xcoordinate
    102.21616462495713,       !- Vertex 1 Ycoordinate
    10.7,                     !- Vertex 1 Zcoordinate
    84.16854927469258,        !- Vertex 2 Xcoordinate
    102.21616462495713,       !- Vertex 2 Ycoordinate
    9.3,                      !- Vertex 2 Zcoordinate
    86.42017603413687,        !- Vertex 3 Xcoordinate
    106.50381351058768,       !- Vertex 3 Ycoordinate
    9.3,                      !- Vertex 3 Zcoordinate
    86.42017603413687,        !- Vertex 4 Xcoordinate
    106.50381351058768,       !- Vertex 4 Ycoordinate
    10.7;                     !- Vertex 4 Zcoordinate

FENESTRATIONSURFACE:DETAILED,
    Block Poly_10_Transport Storey 2 Wall 0024 window,    !- Name
    Window,                   !- Surface Type
    HSCWZ_Public&Industrial_2015_Win,    !- Construction Name
    Block Poly_10_Transport Storey 2 Wall 0024,    !- Building Surface Name
    ,                         !- Outside Boundary Condition Object
    autocalculate,            !- View Factor to Ground
    ,                         !- Frame and Divider Name
    1,                        !- Multiplier
    autocalculate,            !- Number of Vertices
    86.42179956696893,        !- Vertex 1 Xcoordinate
    106.51071982857701,       !- Vertex 1 Ycoordinate
    10.7,                     !- Vertex 1 Zcoordinate
    86.42179956696893,        !- Vertex 2 Xcoordinate
    106.51071982857701,       !- Vertex 2 Ycoordinate
    9.3,                      !- Vertex 2 Zcoordinate
    87.41399140595493,        !- Vertex 3 Xcoordinate
    116.02189428565163,       !- Vertex 3 Ycoordinate
    9.3,                      !- Vertex 3 Zcoordinate
    87.41399140595493,        !- Vertex 4 Xcoordinate
    116.02189428565163,       !- Vertex 4 Ycoordinate
    10.7;                     !- Vertex 4 Zcoordinate

FENESTRATIONSURFACE:DETAILED,
    Block Poly_10_Transport Storey 2 Wall 0025 window,    !- Name
    Window,                   !- Surface Type
    HSCWZ_Public&Industrial_2015_Win,    !- Construction Name
    Block Poly_10_Transport Storey 2 Wall 0025,    !- Building Surface Name
    ,                         !- Outside Boundary Condition Object
    autocalculate,            !- View Factor to Ground
    ,                         !- Frame and Divider Name
    1,                        !- Multiplier
    autocalculate,            !- Number of Vertices
    87.41365707024268,        !- Vertex 1 Xcoordinate
    116.03193272572267,       !- Vertex 1 Ycoordinate
    10.7,                     !- Vertex 1 Zcoordinate
    87.41365707024268,        !- Vertex 2 Xcoordinate
    116.03193272572267,       !- Vertex 2 Ycoordinate
    9.3,                      !- Vertex 2 Zcoordinate
    85.75346247818054,        !- Vertex 3 Xcoordinate
    126.57756153059867,       !- Vertex 3 Ycoordinate
    9.3,                      !- Vertex 3 Zcoordinate
    85.75346247818054,        !- Vertex 4 Xcoordinate
    126.57756153059867,       !- Vertex 4 Ycoordinate
    10.7;                     !- Vertex 4 Zcoordinate

FENESTRATIONSURFACE:DETAILED,
    Block Poly_10_Transport Storey 2 Wall 0026 window,    !- Name
    Window,                   !- Surface Type
    HSCWZ_Public&Industrial_2015_Win,    !- Construction Name
    Block Poly_10_Transport Storey 2 Wall 0026,    !- Building Surface Name
    ,                         !- Outside Boundary Condition Object
    autocalculate,            !- View Factor to Ground
    ,                         !- Frame and Divider Name
    1,                        !- Multiplier
    autocalculate,            !- Number of Vertices
    85.75094315932563,        !- Vertex 1 Xcoordinate
    126.58480379225081,       !- Vertex 1 Ycoordinate
    10.7,                     !- Vertex 1 Zcoordinate
    85.75094315932563,        !- Vertex 2 Xcoordinate
    126.58480379225081,       !- Vertex 2 Ycoordinate
    9.3,                      !- Vertex 2 Zcoordinate
    82.3775386792937,         !- Vertex 3 Xcoordinate
    130.509213768343,         !- Vertex 3 Ycoordinate
    9.3,                      !- Vertex 3 Zcoordinate
    82.3775386792937,         !- Vertex 4 Xcoordinate
    130.509213768343,         !- Vertex 4 Ycoordinate
    10.7;                     !- Vertex 4 Zcoordinate

FENESTRATIONSURFACE:DETAILED,
    Block Poly_10_Transport Storey 2 Wall 0027 window,    !- Name
    Window,                   !- Surface Type
    HSCWZ_Public&Industrial_2015_Win,    !- Construction Name
    Block Poly_10_Transport Storey 2 Wall 0027,    !- Building Surface Name
    ,                         !- Outside Boundary Condition Object
    autocalculate,            !- View Factor to Ground
    ,                         !- Frame and Divider Name
    1,                        !- Multiplier
    autocalculate,            !- Number of Vertices
    82.37452670072878,        !- Vertex 1 Xcoordinate
    130.511972801344,         !- Vertex 1 Ycoordinate
    10.7,                     !- Vertex 1 Zcoordinate
    82.37452670072878,        !- Vertex 2 Xcoordinate
    130.511972801344,         !- Vertex 2 Ycoordinate
    9.3,                      !- Vertex 2 Zcoordinate
    79.72999800803166,        !- Vertex 3 Xcoordinate
    132.10011076130579,       !- Vertex 3 Ycoordinate
    9.3,                      !- Vertex 3 Zcoordinate
    79.72999800803166,        !- Vertex 4 Xcoordinate
    132.10011076130579,       !- Vertex 4 Ycoordinate
    10.7;                     !- Vertex 4 Zcoordinate

FENESTRATIONSURFACE:DETAILED,
    Block Poly_10_Transport Storey 2 Wall 0028 window,    !- Name
    Window,                   !- Surface Type
    HSCWZ_Public&Industrial_2015_Win,    !- Construction Name
    Block Poly_10_Transport Storey 2 Wall 0028,    !- Building Surface Name
    ,                         !- Outside Boundary Condition Object
    autocalculate,            !- View Factor to Ground
    ,                         !- Frame and Divider Name
    1,                        !- Multiplier
    autocalculate,            !- Number of Vertices
    79.7252824045573,         !- Vertex 1 Xcoordinate
    132.10039939863142,       !- Vertex 1 Ycoordinate
    10.7,                     !- Vertex 1 Zcoordinate
    79.7252824045573,         !- Vertex 2 Xcoordinate
    132.10039939863142,       !- Vertex 2 Ycoordinate
    9.3,                      !- Vertex 2 Zcoordinate
    72.94803535549718,        !- Vertex 3 Xcoordinate
    131.088958815285,         !- Vertex 3 Ycoordinate
    9.3,                      !- Vertex 3 Zcoordinate
    72.94803535549718,        !- Vertex 4 Xcoordinate
    131.088958815285,         !- Vertex 4 Ycoordinate
    10.7;                     !- Vertex 4 Zcoordinate

FENESTRATIONSURFACE:DETAILED,
    Block Poly_10_Transport Storey 2 Wall 0029 window,    !- Name
    Window,                   !- Surface Type
    HSCWZ_Public&Industrial_2015_Win,    !- Construction Name
    Block Poly_10_Transport Storey 2 Wall 0029,    !- Building Surface Name
    ,                         !- Outside Boundary Condition Object
    autocalculate,            !- View Factor to Ground
    ,                         !- Frame and Divider Name
    1,                        !- Multiplier
    autocalculate,            !- Number of Vertices
    72.94237639118568,        !- Vertex 1 Xcoordinate
    131.08659996733397,       !- Vertex 1 Ycoordinate
    10.7,                     !- Vertex 1 Zcoordinate
    72.94237639118568,        !- Vertex 2 Xcoordinate
    131.08659996733397,       !- Vertex 2 Ycoordinate
    9.3,                      !- Vertex 2 Zcoordinate
    68.41301274586819,        !- Vertex 3 Xcoordinate
    127.38506234448079,       !- Vertex 3 Ycoordinate
    9.3,                      !- Vertex 3 Zcoordinate
    68.41301274586819,        !- Vertex 4 Xcoordinate
    127.38506234448079,       !- Vertex 4 Ycoordinate
    10.7;                     !- Vertex 4 Zcoordinate

FENESTRATIONSURFACE:DETAILED,
    Block Poly_10_Transport Storey 2 Wall 0030 window,    !- Name
    Window,                   !- Surface Type
    HSCWZ_Public&Industrial_2015_Win,    !- Construction Name
    Block Poly_10_Transport Storey 2 Wall 0030,    !- Building Surface Name
    ,                         !- Outside Boundary Condition Object
    autocalculate,            !- View Factor to Ground
    ,                         !- Frame and Divider Name
    1,                        !- Multiplier
    autocalculate,            !- Number of Vertices
    68.40967359607271,        !- Vertex 1 Xcoordinate
    127.38156189097326,       !- Vertex 1 Ycoordinate
    10.7,                     !- Vertex 1 Zcoordinate
    68.40967359607271,        !- Vertex 2 Xcoordinate
    127.38156189097326,       !- Vertex 2 Ycoordinate
    9.3,                      !- Vertex 2 Zcoordinate
    66.26741595003591,        !- Vertex 3 Xcoordinate
    124.08919340578606,       !- Vertex 3 Ycoordinate
    9.3,                      !- Vertex 3 Zcoordinate
    66.26741595003591,        !- Vertex 4 Xcoordinate
    124.08919340578606,       !- Vertex 4 Ycoordinate
    10.7;                     !- Vertex 4 Zcoordinate

FENESTRATIONSURFACE:DETAILED,
    Block Poly_10_Transport Storey 2 Wall 0031 window,    !- Name
    Window,                   !- Surface Type
    HSCWZ_Public&Industrial_2015_Win,    !- Construction Name
    Block Poly_10_Transport Storey 2 Wall 0031,    !- Building Surface Name
    ,                         !- Outside Boundary Condition Object
    autocalculate,            !- View Factor to Ground
    ,                         !- Frame and Divider Name
    1,                        !- Multiplier
    autocalculate,            !- Number of Vertices
    66.26661588183391,        !- Vertex 1 Xcoordinate
    124.08992540911515,       !- Vertex 1 Ycoordinate
    10.7,                     !- Vertex 1 Zcoordinate
    66.26661588183391,        !- Vertex 2 Xcoordinate
    124.08992540911515,       !- Vertex 2 Ycoordinate
    9.3,                      !- Vertex 2 Zcoordinate
    66.81033726029078,        !- Vertex 3 Xcoordinate
    128.84483654582195,       !- Vertex 3 Ycoordinate
    9.3,                      !- Vertex 3 Zcoordinate
    66.81033726029078,        !- Vertex 4 Xcoordinate
    128.84483654582195,       !- Vertex 4 Ycoordinate
    10.7;                     !- Vertex 4 Zcoordinate

FENESTRATIONSURFACE:DETAILED,
    Block Poly_10_Transport Storey 3 Wall 0001 window,    !- Name
    Window,                   !- Surface Type
    HSCWZ_Public&Industrial_2015_Win,    !- Construction Name
    Block Poly_10_Transport Storey 3 Wall 0001,    !- Building Surface Name
    ,                         !- Outside Boundary Condition Object
    autocalculate,            !- View Factor to Ground
    ,                         !- Frame and Divider Name
    1,                        !- Multiplier
    autocalculate,            !- Number of Vertices
    66.80897665694737,        !- Vertex 1 Xcoordinate
    128.85982324562568,       !- Vertex 1 Ycoordinate
    14.7,                     !- Vertex 1 Zcoordinate
    66.80897665694737,        !- Vertex 2 Xcoordinate
    128.85982324562568,       !- Vertex 2 Ycoordinate
    13.3,                     !- Vertex 2 Zcoordinate
    63.546769798368594,       !- Vertex 3 Xcoordinate
    154.0483383167761,        !- Vertex 3 Ycoordinate
    13.3,                     !- Vertex 3 Zcoordinate
    63.546769798368594,       !- Vertex 4 Xcoordinate
    154.0483383167761,        !- Vertex 4 Ycoordinate
    14.7;                     !- Vertex 4 Zcoordinate

FENESTRATIONSURFACE:DETAILED,
    Block Poly_10_Transport Storey 3 Wall 0002 window,    !- Name
    Window,                   !- Surface Type
    HSCWZ_Public&Industrial_2015_Win,    !- Construction Name
    Block Poly_10_Transport Storey 3 Wall 0002,    !- Building Surface Name
    ,                         !- Outside Boundary Condition Object
    autocalculate,            !- View Factor to Ground
    ,                         !- Frame and Divider Name
    1,                        !- Multiplier
    autocalculate,            !- Number of Vertices
    63.543588831320434,       !- Vertex 1 Xcoordinate
    154.06606714951945,       !- Vertex 1 Ycoordinate
    14.7,                     !- Vertex 1 Zcoordinate
    63.543588831320434,       !- Vertex 2 Xcoordinate
    154.06606714951945,       !- Vertex 2 Ycoordinate
    13.3,                     !- Vertex 2 Zcoordinate
    60.45022352767593,        !- Vertex 3 Xcoordinate
    164.29975989960926,       !- Vertex 3 Ycoordinate
    13.3,                     !- Vertex 3 Zcoordinate
    60.45022352767593,        !- Vertex 4 Xcoordinate
    164.29975989960926,       !- Vertex 4 Ycoordinate
    14.7;                     !- Vertex 4 Zcoordinate

FENESTRATIONSURFACE:DETAILED,
    Block Poly_10_Transport Storey 3 Wall 0003 window,    !- Name
    Window,                   !- Surface Type
    HSCWZ_Public&Industrial_2015_Win,    !- Construction Name
    Block Poly_10_Transport Storey 3 Wall 0003,    !- Building Surface Name
    ,                         !- Outside Boundary Condition Object
    autocalculate,            !- View Factor to Ground
    ,                         !- Frame and Divider Name
    1,                        !- Multiplier
    autocalculate,            !- Number of Vertices
    60.44641840140798,        !- Vertex 1 Xcoordinate
    164.31045737049658,       !- Vertex 1 Ycoordinate
    14.7,                     !- Vertex 1 Zcoordinate
    60.44641840140798,        !- Vertex 2 Xcoordinate
    164.31045737049658,       !- Vertex 2 Ycoordinate
    13.3,                     !- Vertex 2 Zcoordinate
    55.93714142168642,        !- Vertex 3 Xcoordinate
    175.45031145329472,       !- Vertex 3 Ycoordinate
    13.3,                     !- Vertex 3 Zcoordinate
    55.93714142168642,        !- Vertex 4 Xcoordinate
    175.45031145329472,       !- Vertex 4 Ycoordinate
    14.7;                     !- Vertex 4 Zcoordinate

FENESTRATIONSURFACE:DETAILED,
    Block Poly_10_Transport Storey 3 Wall 0004 window,    !- Name
    Window,                   !- Surface Type
    HSCWZ_Public&Industrial_2015_Win,    !- Construction Name
    Block Poly_10_Transport Storey 3 Wall 0004,    !- Building Surface Name
    ,                         !- Outside Boundary Condition Object
    autocalculate,            !- View Factor to Ground
    ,                         !- Frame and Divider Name
    1,                        !- Multiplier
    autocalculate,            !- Number of Vertices
    55.92644801071478,        !- Vertex 1 Xcoordinate
    175.4560066668971,        !- Vertex 1 Ycoordinate
    14.7,                     !- Vertex 1 Zcoordinate
    55.92644801071478,        !- Vertex 2 Xcoordinate
    175.4560066668971,        !- Vertex 2 Ycoordinate
    13.3,                     !- Vertex 2 Zcoordinate
    39.070289869102595,       !- Vertex 3 Xcoordinate
    175.69518936167447,       !- Vertex 3 Ycoordinate
    13.3,                     !- Vertex 3 Zcoordinate
    39.070289869102595,       !- Vertex 4 Xcoordinate
    175.69518936167447,       !- Vertex 4 Ycoordinate
    14.7;                     !- Vertex 4 Zcoordinate

FENESTRATIONSURFACE:DETAILED,
    Block Poly_10_Transport Storey 3 Wall 0005 window,    !- Name
    Window,                   !- Surface Type
    HSCWZ_Public&Industrial_2015_Win,    !- Construction Name
    Block Poly_10_Transport Storey 3 Wall 0005,    !- Building Surface Name
    ,                         !- Outside Boundary Condition Object
    autocalculate,            !- View Factor to Ground
    ,                         !- Frame and Divider Name
    1,                        !- Multiplier
    autocalculate,            !- Number of Vertices
    39.06153276445667,        !- Vertex 1 Xcoordinate
    175.69287449041963,       !- Vertex 1 Ycoordinate
    14.7,                     !- Vertex 1 Zcoordinate
    39.06153276445667,        !- Vertex 2 Xcoordinate
    175.69287449041963,       !- Vertex 2 Ycoordinate
    13.3,                     !- Vertex 2 Zcoordinate
    38.420995823521196,       !- Vertex 3 Xcoordinate
    170.8285790284665,        !- Vertex 3 Ycoordinate
    13.3,                     !- Vertex 3 Zcoordinate
    38.420995823521196,       !- Vertex 4 Xcoordinate
    170.8285790284665,        !- Vertex 4 Ycoordinate
    14.7;                     !- Vertex 4 Zcoordinate

FENESTRATIONSURFACE:DETAILED,
    Block Poly_10_Transport Storey 3 Wall 0006 window,    !- Name
    Window,                   !- Surface Type
    HSCWZ_Public&Industrial_2015_Win,    !- Construction Name
    Block Poly_10_Transport Storey 3 Wall 0006,    !- Building Surface Name
    ,                         !- Outside Boundary Condition Object
    autocalculate,            !- View Factor to Ground
    ,                         !- Frame and Divider Name
    1,                        !- Multiplier
    autocalculate,            !- Number of Vertices
    38.41813960677412,        !- Vertex 1 Xcoordinate
    170.82551521077963,       !- Vertex 1 Ycoordinate
    14.7,                     !- Vertex 1 Zcoordinate
    38.41813960677412,        !- Vertex 2 Xcoordinate
    170.82551521077963,       !- Vertex 2 Ycoordinate
    13.3,                     !- Vertex 2 Zcoordinate
    33.351955487041934,       !- Vertex 3 Xcoordinate
    169.56830293437255,       !- Vertex 3 Ycoordinate
    13.3,                     !- Vertex 3 Zcoordinate
    33.351955487041934,       !- Vertex 4 Xcoordinate
    169.56830293437255,       !- Vertex 4 Ycoordinate
    14.7;                     !- Vertex 4 Zcoordinate

FENESTRATIONSURFACE:DETAILED,
    Block Poly_10_Transport Storey 3 Wall 0007 window,    !- Name
    Window,                   !- Surface Type
    HSCWZ_Public&Industrial_2015_Win,    !- Construction Name
    Block Poly_10_Transport Storey 3 Wall 0007,    !- Building Surface Name
    ,                         !- Outside Boundary Condition Object
    autocalculate,            !- View Factor to Ground
    ,                         !- Frame and Divider Name
    1,                        !- Multiplier
    autocalculate,            !- Number of Vertices
    33.34729543640936,        !- Vertex 1 Xcoordinate
    169.535551657642,         !- Vertex 1 Ycoordinate
    14.7,                     !- Vertex 1 Zcoordinate
    33.34729543640936,        !- Vertex 2 Xcoordinate
    169.535551657642,         !- Vertex 2 Ycoordinate
    13.3,                     !- Vertex 2 Zcoordinate
    29.102698392251448,       !- Vertex 3 Xcoordinate
    105.35571302639065,       !- Vertex 3 Ycoordinate
    13.3,                     !- Vertex 3 Zcoordinate
    29.102698392251448,       !- Vertex 4 Xcoordinate
    105.35571302639065,       !- Vertex 4 Ycoordinate
    14.7;                     !- Vertex 4 Zcoordinate

FENESTRATIONSURFACE:DETAILED,
    Block Poly_10_Transport Storey 3 Wall 0008 window,    !- Name
    Window,                   !- Surface Type
    HSCWZ_Public&Industrial_2015_Win,    !- Construction Name
    Block Poly_10_Transport Storey 3 Wall 0008,    !- Building Surface Name
    ,                         !- Outside Boundary Condition Object
    autocalculate,            !- View Factor to Ground
    ,                         !- Frame and Divider Name
    1,                        !- Multiplier
    autocalculate,            !- Number of Vertices
    29.095898617572995,       !- Vertex 1 Xcoordinate
    105.30320189114055,       !- Vertex 1 Ycoordinate
    14.7,                     !- Vertex 1 Zcoordinate
    29.095898617572995,       !- Vertex 2 Xcoordinate
    105.30320189114055,       !- Vertex 2 Ycoordinate
    13.3,                     !- Vertex 2 Zcoordinate
    19.7545458541816,         !- Vertex 3 Xcoordinate
    64.56579229269782,        !- Vertex 3 Ycoordinate
    13.3,                     !- Vertex 3 Zcoordinate
    19.7545458541816,         !- Vertex 4 Xcoordinate
    64.56579229269782,        !- Vertex 4 Ycoordinate
    14.7;                     !- Vertex 4 Zcoordinate

FENESTRATIONSURFACE:DETAILED,
    Block Poly_10_Transport Storey 3 Wall 0009 window,    !- Name
    Window,                   !- Surface Type
    HSCWZ_Public&Industrial_2015_Win,    !- Construction Name
    Block Poly_10_Transport Storey 3 Wall 0009,    !- Building Surface Name
    ,                         !- Outside Boundary Condition Object
    autocalculate,            !- View Factor to Ground
    ,                         !- Frame and Divider Name
    1,                        !- Multiplier
    autocalculate,            !- Number of Vertices
    19.743352718322388,       !- Vertex 1 Xcoordinate
    64.52620438811742,        !- Vertex 1 Ycoordinate
    14.7,                     !- Vertex 1 Zcoordinate
    19.743352718322388,       !- Vertex 2 Xcoordinate
    64.52620438811742,        !- Vertex 2 Ycoordinate
    13.3,                     !- Vertex 2 Zcoordinate
    6.720820035008393,        !- Vertex 3 Xcoordinate
    26.16698063491471,        !- Vertex 3 Ycoordinate
    13.3,                     !- Vertex 3 Zcoordinate
    6.720820035008393,        !- Vertex 4 Xcoordinate
    26.16698063491471,        !- Vertex 4 Ycoordinate
    14.7;                     !- Vertex 4 Zcoordinate

FENESTRATIONSURFACE:DETAILED,
    Block Poly_10_Transport Storey 3 Wall 0010 window,    !- Name
    Window,                   !- Surface Type
    HSCWZ_Public&Industrial_2015_Win,    !- Construction Name
    Block Poly_10_Transport Storey 3 Wall 0010,    !- Building Surface Name
    ,                         !- Outside Boundary Condition Object
    autocalculate,            !- View Factor to Ground
    ,                         !- Frame and Divider Name
    1,                        !- Multiplier
    autocalculate,            !- Number of Vertices
    6.716818249678065,        !- Vertex 1 Xcoordinate
    26.147025463439757,       !- Vertex 1 Ycoordinate
    14.7,                     !- Vertex 1 Zcoordinate
    6.716818249678065,        !- Vertex 2 Xcoordinate
    26.147025463439757,       !- Vertex 2 Ycoordinate
    13.3,                     !- Vertex 2 Zcoordinate
    11.743783842995006,       !- Vertex 3 Xcoordinate
    24.635816609684145,       !- Vertex 3 Ycoordinate
    13.3,                     !- Vertex 3 Zcoordinate
    11.743783842995006,       !- Vertex 4 Xcoordinate
    24.635816609684145,       !- Vertex 4 Ycoordinate
    14.7;                     !- Vertex 4 Zcoordinate

FENESTRATIONSURFACE:DETAILED,
    Block Poly_10_Transport Storey 3 Wall 0011 window,    !- Name
    Window,                   !- Surface Type
    HSCWZ_Public&Industrial_2015_Win,    !- Construction Name
    Block Poly_10_Transport Storey 3 Wall 0011,    !- Building Surface Name
    ,                         !- Outside Boundary Condition Object
    autocalculate,            !- View Factor to Ground
    ,                         !- Frame and Divider Name
    1,                        !- Multiplier
    autocalculate,            !- Number of Vertices
    11.740426691869565,       !- Vertex 1 Xcoordinate
    24.62433381801727,        !- Vertex 1 Ycoordinate
    14.7,                     !- Vertex 1 Zcoordinate
    11.740426691869565,       !- Vertex 2 Xcoordinate
    24.62433381801727,        !- Vertex 2 Ycoordinate
    13.3,                     !- Vertex 2 Zcoordinate
    0.00587315,               !- Vertex 3 Xcoordinate
    3.1929249213610316,       !- Vertex 3 Ycoordinate
    13.3,                     !- Vertex 3 Zcoordinate
    0.00587315,               !- Vertex 4 Xcoordinate
    3.1929249213610316,       !- Vertex 4 Ycoordinate
    14.7;                     !- Vertex 4 Zcoordinate

FENESTRATIONSURFACE:DETAILED,
    Block Poly_10_Transport Storey 3 Wall 0012 window,    !- Name
    Window,                   !- Surface Type
    HSCWZ_Public&Industrial_2015_Win,    !- Construction Name
    Block Poly_10_Transport Storey 3 Wall 0012,    !- Building Surface Name
    ,                         !- Outside Boundary Condition Object
    autocalculate,            !- View Factor to Ground
    ,                         !- Frame and Divider Name
    1,                        !- Multiplier
    autocalculate,            !- Number of Vertices
    0.002742528,              !- Vertex 1 Xcoordinate
    3.1806073912365833,       !- Vertex 1 Ycoordinate
    14.7,                     !- Vertex 1 Zcoordinate
    0.002742528,              !- Vertex 2 Xcoordinate
    3.1806073912365833,       !- Vertex 2 Ycoordinate
    13.3,                     !- Vertex 2 Zcoordinate
    5.482314279814251,        !- Vertex 3 Xcoordinate
    0.001591099,              !- Vertex 3 Ycoordinate
    13.3,                     !- Vertex 3 Zcoordinate
    5.482314279814251,        !- Vertex 4 Xcoordinate
    0.001591099,              !- Vertex 4 Ycoordinate
    14.7;                     !- Vertex 4 Zcoordinate

FENESTRATIONSURFACE:DETAILED,
    Block Poly_10_Transport Storey 3 Wall 0013 window,    !- Name
    Window,                   !- Surface Type
    HSCWZ_Public&Industrial_2015_Win,    !- Construction Name
    Block Poly_10_Transport Storey 3 Wall 0013,    !- Building Surface Name
    ,                         !- Outside Boundary Condition Object
    autocalculate,            !- View Factor to Ground
    ,                         !- Frame and Divider Name
    1,                        !- Multiplier
    autocalculate,            !- Number of Vertices
    5.492298542694014,        !- Vertex 1 Xcoordinate
    0.006383097,              !- Vertex 1 Ycoordinate
    14.7,                     !- Vertex 1 Zcoordinate
    5.492298542694014,        !- Vertex 2 Xcoordinate
    0.006383097,              !- Vertex 2 Ycoordinate
    13.3,                     !- Vertex 2 Zcoordinate
    19.961284025050873,       !- Vertex 3 Xcoordinate
    12.759810365804473,       !- Vertex 3 Ycoordinate
    13.3,                     !- Vertex 3 Zcoordinate
    19.961284025050873,       !- Vertex 4 Xcoordinate
    12.759810365804473,       !- Vertex 4 Ycoordinate
    14.7;                     !- Vertex 4 Zcoordinate

FENESTRATIONSURFACE:DETAILED,
    Block Poly_10_Transport Storey 3 Wall 0014 window,    !- Name
    Window,                   !- Surface Type
    HSCWZ_Public&Industrial_2015_Win,    !- Construction Name
    Block Poly_10_Transport Storey 3 Wall 0014,    !- Building Surface Name
    ,                         !- Outside Boundary Condition Object
    autocalculate,            !- View Factor to Ground
    ,                         !- Frame and Divider Name
    1,                        !- Multiplier
    autocalculate,            !- Number of Vertices
    19.980350184645417,       !- Vertex 1 Xcoordinate
    12.779718065040885,       !- Vertex 1 Ycoordinate
    14.7,                     !- Vertex 1 Zcoordinate
    19.980350184645417,       !- Vertex 2 Xcoordinate
    12.779718065040885,       !- Vertex 2 Ycoordinate
    13.3,                     !- Vertex 2 Zcoordinate
    43.6055515721837,         !- Vertex 3 Xcoordinate
    39.801873870321785,       !- Vertex 3 Ycoordinate
    13.3,                     !- Vertex 3 Zcoordinate
    43.6055515721837,         !- Vertex 4 Xcoordinate
    39.801873870321785,       !- Vertex 4 Ycoordinate
    14.7;                     !- Vertex 4 Zcoordinate

FENESTRATIONSURFACE:DETAILED,
    Block Poly_10_Transport Storey 3 Wall 0015 window,    !- Name
    Window,                   !- Surface Type
    HSCWZ_Public&Industrial_2015_Win,    !- Construction Name
    Block Poly_10_Transport Storey 3 Wall 0015,    !- Building Surface Name
    ,                         !- Outside Boundary Condition Object
    autocalculate,            !- View Factor to Ground
    ,                         !- Frame and Divider Name
    1,                        !- Multiplier
    autocalculate,            !- Number of Vertices
    43.621634478755496,       !- Vertex 1 Xcoordinate
    39.823209790562515,       !- Vertex 1 Ycoordinate
    14.7,                     !- Vertex 1 Zcoordinate
    43.621634478755496,       !- Vertex 2 Xcoordinate
    39.823209790562515,       !- Vertex 2 Ycoordinate
    13.3,                     !- Vertex 2 Zcoordinate
    52.13008042167154,        !- Vertex 3 Xcoordinate
    55.430222626260246,       !- Vertex 3 Ycoordinate
    13.3,                     !- Vertex 3 Zcoordinate
    52.13008042167154,        !- Vertex 4 Xcoordinate
    55.430222626260246,       !- Vertex 4 Ycoordinate
    14.7;                     !- Vertex 4 Zcoordinate

FENESTRATIONSURFACE:DETAILED,
    Block Poly_10_Transport Storey 3 Wall 0016 window,    !- Name
    Window,                   !- Surface Type
    HSCWZ_Public&Industrial_2015_Win,    !- Construction Name
    Block Poly_10_Transport Storey 3 Wall 0016,    !- Building Surface Name
    ,                         !- Outside Boundary Condition Object
    autocalculate,            !- View Factor to Ground
    ,                         !- Frame and Divider Name
    1,                        !- Multiplier
    autocalculate,            !- Number of Vertices
    52.13764172552515,        !- Vertex 1 Xcoordinate
    55.445692519133445,       !- Vertex 1 Ycoordinate
    14.7,                     !- Vertex 1 Zcoordinate
    52.13764172552515,        !- Vertex 2 Xcoordinate
    55.445692519133445,       !- Vertex 2 Ycoordinate
    13.3,                     !- Vertex 2 Zcoordinate
    58.736680882122485,       !- Vertex 3 Xcoordinate
    70.74752564408118,        !- Vertex 3 Ycoordinate
    13.3,                     !- Vertex 3 Zcoordinate
    58.736680882122485,       !- Vertex 4 Xcoordinate
    70.74752564408118,        !- Vertex 4 Ycoordinate
    14.7;                     !- Vertex 4 Zcoordinate

FENESTRATIONSURFACE:DETAILED,
    Block Poly_10_Transport Storey 3 Wall 0017 window,    !- Name
    Window,                   !- Surface Type
    HSCWZ_Public&Industrial_2015_Win,    !- Construction Name
    Block Poly_10_Transport Storey 3 Wall 0017,    !- Building Surface Name
    ,                         !- Outside Boundary Condition Object
    autocalculate,            !- View Factor to Ground
    ,                         !- Frame and Divider Name
    1,                        !- Multiplier
    autocalculate,            !- Number of Vertices
    58.74168087117694,        !- Vertex 1 Xcoordinate
    70.76391883768095,        !- Vertex 1 Ycoordinate
    14.7,                     !- Vertex 1 Zcoordinate
    58.74168087117694,        !- Vertex 2 Xcoordinate
    70.76391883768095,        !- Vertex 2 Ycoordinate
    13.3,                     !- Vertex 2 Zcoordinate
    62.132619845384326,       !- Vertex 3 Xcoordinate
    88.21568652506964,        !- Vertex 3 Ycoordinate
    13.3,                     !- Vertex 3 Zcoordinate
    62.132619845384326,       !- Vertex 4 Xcoordinate
    88.21568652506964,        !- Vertex 4 Ycoordinate
    14.7;                     !- Vertex 4 Zcoordinate

FENESTRATIONSURFACE:DETAILED,
    Block Poly_10_Transport Storey 3 Wall 0018 window,    !- Name
    Window,                   !- Surface Type
    HSCWZ_Public&Industrial_2015_Win,    !- Construction Name
    Block Poly_10_Transport Storey 3 Wall 0018,    !- Building Surface Name
    ,                         !- Outside Boundary Condition Object
    autocalculate,            !- View Factor to Ground
    ,                         !- Frame and Divider Name
    1,                        !- Multiplier
    autocalculate,            !- Number of Vertices
    62.135296851385036,       !- Vertex 1 Xcoordinate
    88.23299963525706,        !- Vertex 1 Ycoordinate
    14.7,                     !- Vertex 1 Zcoordinate
    62.135296851385036,       !- Vertex 2 Xcoordinate
    88.23299963525706,        !- Vertex 2 Ycoordinate
    13.3,                     !- Vertex 2 Zcoordinate
    64.09301586659846,        !- Vertex 3 Xcoordinate
    105.37282610232732,       !- Vertex 3 Ycoordinate
    13.3,                     !- Vertex 3 Zcoordinate
    64.09301586659846,        !- Vertex 4 Xcoordinate
    105.37282610232732,       !- Vertex 4 Ycoordinate
    14.7;                     !- Vertex 4 Zcoordinate

FENESTRATIONSURFACE:DETAILED,
    Block Poly_10_Transport Storey 3 Wall 0019 window,    !- Name
    Window,                   !- Surface Type
    HSCWZ_Public&Industrial_2015_Win,    !- Construction Name
    Block Poly_10_Transport Storey 3 Wall 0019,    !- Building Surface Name
    ,                         !- Outside Boundary Condition Object
    autocalculate,            !- View Factor to Ground
    ,                         !- Frame and Divider Name
    1,                        !- Multiplier
    autocalculate,            !- Number of Vertices
    64.09562935655998,        !- Vertex 1 Xcoordinate
    105.37894228553563,       !- Vertex 1 Ycoordinate
    14.7,                     !- Vertex 1 Zcoordinate
    64.09562935655998,        !- Vertex 2 Xcoordinate
    105.37894228553563,       !- Vertex 2 Ycoordinate
    13.3,                     !- Vertex 2 Zcoordinate
    67.35966328445062,        !- Vertex 3 Xcoordinate
    100.45924986865208,       !- Vertex 3 Ycoordinate
    13.3,                     !- Vertex 3 Zcoordinate
    67.35966328445062,        !- Vertex 4 Xcoordinate
    100.45924986865208,       !- Vertex 4 Ycoordinate
    14.7;                     !- Vertex 4 Zcoordinate

FENESTRATIONSURFACE:DETAILED,
    Block Poly_10_Transport Storey 3 Wall 0020 window,    !- Name
    Window,                   !- Surface Type
    HSCWZ_Public&Industrial_2015_Win,    !- Construction Name
    Block Poly_10_Transport Storey 3 Wall 0020,    !- Building Surface Name
    ,                         !- Outside Boundary Condition Object
    autocalculate,            !- View Factor to Ground
    ,                         !- Frame and Divider Name
    1,                        !- Multiplier
    autocalculate,            !- Number of Vertices
    67.36280725186973,        !- Vertex 1 Xcoordinate
    100.45571287182602,       !- Vertex 1 Ycoordinate
    14.7,                     !- Vertex 1 Zcoordinate
    67.36280725186973,        !- Vertex 2 Xcoordinate
    100.45571287182602,       !- Vertex 2 Ycoordinate
    13.3,                     !- Vertex 2 Zcoordinate
    70.38042022735297,        !- Vertex 3 Xcoordinate
    98.308485630234,          !- Vertex 3 Ycoordinate
    13.3,                     !- Vertex 3 Zcoordinate
    70.38042022735297,        !- Vertex 4 Xcoordinate
    98.308485630234,          !- Vertex 4 Ycoordinate
    14.7;                     !- Vertex 4 Zcoordinate

FENESTRATIONSURFACE:DETAILED,
    Block Poly_10_Transport Storey 3 Wall 0021 window,    !- Name
    Window,                   !- Surface Type
    HSCWZ_Public&Industrial_2015_Win,    !- Construction Name
    Block Poly_10_Transport Storey 3 Wall 0021,    !- Building Surface Name
    ,                         !- Outside Boundary Condition Object
    autocalculate,            !- View Factor to Ground
    ,                         !- Frame and Divider Name
    1,                        !- Multiplier
    autocalculate,            !- Number of Vertices
    70.38655633752275,        !- Vertex 1 Xcoordinate
    98.30751162184728,        !- Vertex 1 Ycoordinate
    14.7,                     !- Vertex 1 Zcoordinate
    70.38655633752275,        !- Vertex 2 Xcoordinate
    98.30751162184728,        !- Vertex 2 Ycoordinate
    13.3,                     !- Vertex 2 Zcoordinate
    79.62889148126781,        !- Vertex 3 Xcoordinate
    98.50867010676907,        !- Vertex 3 Ycoordinate
    13.3,                     !- Vertex 3 Zcoordinate
    79.62889148126781,        !- Vertex 4 Xcoordinate
    98.50867010676907,        !- Vertex 4 Ycoordinate
    14.7;                     !- Vertex 4 Zcoordinate

FENESTRATIONSURFACE:DETAILED,
    Block Poly_10_Transport Storey 3 Wall 0022 window,    !- Name
    Window,                   !- Surface Type
    HSCWZ_Public&Industrial_2015_Win,    !- Construction Name
    Block Poly_10_Transport Storey 3 Wall 0022,    !- Building Surface Name
    ,                         !- Outside Boundary Condition Object
    autocalculate,            !- View Factor to Ground
    ,                         !- Frame and Divider Name
    1,                        !- Multiplier
    autocalculate,            !- Number of Vertices
    79.63578422716292,        !- Vertex 1 Xcoordinate
    98.51062341062539,        !- Vertex 1 Ycoordinate
    14.7,                     !- Vertex 1 Zcoordinate
    79.63578422716292,        !- Vertex 2 Xcoordinate
    98.51062341062539,        !- Vertex 2 Ycoordinate
    13.3,                     !- Vertex 2 Zcoordinate
    84.16515538184267,        !- Vertex 3 Xcoordinate
    102.21216603060998,       !- Vertex 3 Ycoordinate
    13.3,                     !- Vertex 3 Zcoordinate
    84.16515538184267,        !- Vertex 4 Xcoordinate
    102.21216603060998,       !- Vertex 4 Ycoordinate
    14.7;                     !- Vertex 4 Zcoordinate

FENESTRATIONSURFACE:DETAILED,
    Block Poly_10_Transport Storey 3 Wall 0023 window,    !- Name
    Window,                   !- Surface Type
    HSCWZ_Public&Industrial_2015_Win,    !- Construction Name
    Block Poly_10_Transport Storey 3 Wall 0023,    !- Building Surface Name
    ,                         !- Outside Boundary Condition Object
    autocalculate,            !- View Factor to Ground
    ,                         !- Frame and Divider Name
    1,                        !- Multiplier
    autocalculate,            !- Number of Vertices
    84.16854927469258,        !- Vertex 1 Xcoordinate
    102.21616462495713,       !- Vertex 1 Ycoordinate
    14.7,                     !- Vertex 1 Zcoordinate
    84.16854927469258,        !- Vertex 2 Xcoordinate
    102.21616462495713,       !- Vertex 2 Ycoordinate
    13.3,                     !- Vertex 2 Zcoordinate
    86.42017603413687,        !- Vertex 3 Xcoordinate
    106.50381351058768,       !- Vertex 3 Ycoordinate
    13.3,                     !- Vertex 3 Zcoordinate
    86.42017603413687,        !- Vertex 4 Xcoordinate
    106.50381351058768,       !- Vertex 4 Ycoordinate
    14.7;                     !- Vertex 4 Zcoordinate

FENESTRATIONSURFACE:DETAILED,
    Block Poly_10_Transport Storey 3 Wall 0024 window,    !- Name
    Window,                   !- Surface Type
    HSCWZ_Public&Industrial_2015_Win,    !- Construction Name
    Block Poly_10_Transport Storey 3 Wall 0024,    !- Building Surface Name
    ,                         !- Outside Boundary Condition Object
    autocalculate,            !- View Factor to Ground
    ,                         !- Frame and Divider Name
    1,                        !- Multiplier
    autocalculate,            !- Number of Vertices
    86.42179956696893,        !- Vertex 1 Xcoordinate
    106.51071982857701,       !- Vertex 1 Ycoordinate
    14.7,                     !- Vertex 1 Zcoordinate
    86.42179956696893,        !- Vertex 2 Xcoordinate
    106.51071982857701,       !- Vertex 2 Ycoordinate
    13.3,                     !- Vertex 2 Zcoordinate
    87.41399140595493,        !- Vertex 3 Xcoordinate
    116.02189428565163,       !- Vertex 3 Ycoordinate
    13.3,                     !- Vertex 3 Zcoordinate
    87.41399140595493,        !- Vertex 4 Xcoordinate
    116.02189428565163,       !- Vertex 4 Ycoordinate
    14.7;                     !- Vertex 4 Zcoordinate

FENESTRATIONSURFACE:DETAILED,
    Block Poly_10_Transport Storey 3 Wall 0025 window,    !- Name
    Window,                   !- Surface Type
    HSCWZ_Public&Industrial_2015_Win,    !- Construction Name
    Block Poly_10_Transport Storey 3 Wall 0025,    !- Building Surface Name
    ,                         !- Outside Boundary Condition Object
    autocalculate,            !- View Factor to Ground
    ,                         !- Frame and Divider Name
    1,                        !- Multiplier
    autocalculate,            !- Number of Vertices
    87.41365707024268,        !- Vertex 1 Xcoordinate
    116.03193272572267,       !- Vertex 1 Ycoordinate
    14.7,                     !- Vertex 1 Zcoordinate
    87.41365707024268,        !- Vertex 2 Xcoordinate
    116.03193272572267,       !- Vertex 2 Ycoordinate
    13.3,                     !- Vertex 2 Zcoordinate
    85.75346247818054,        !- Vertex 3 Xcoordinate
    126.57756153059867,       !- Vertex 3 Ycoordinate
    13.3,                     !- Vertex 3 Zcoordinate
    85.75346247818054,        !- Vertex 4 Xcoordinate
    126.57756153059867,       !- Vertex 4 Ycoordinate
    14.7;                     !- Vertex 4 Zcoordinate

FENESTRATIONSURFACE:DETAILED,
    Block Poly_10_Transport Storey 3 Wall 0026 window,    !- Name
    Window,                   !- Surface Type
    HSCWZ_Public&Industrial_2015_Win,    !- Construction Name
    Block Poly_10_Transport Storey 3 Wall 0026,    !- Building Surface Name
    ,                         !- Outside Boundary Condition Object
    autocalculate,            !- View Factor to Ground
    ,                         !- Frame and Divider Name
    1,                        !- Multiplier
    autocalculate,            !- Number of Vertices
    85.75094315932563,        !- Vertex 1 Xcoordinate
    126.58480379225081,       !- Vertex 1 Ycoordinate
    14.7,                     !- Vertex 1 Zcoordinate
    85.75094315932563,        !- Vertex 2 Xcoordinate
    126.58480379225081,       !- Vertex 2 Ycoordinate
    13.3,                     !- Vertex 2 Zcoordinate
    82.3775386792937,         !- Vertex 3 Xcoordinate
    130.509213768343,         !- Vertex 3 Ycoordinate
    13.3,                     !- Vertex 3 Zcoordinate
    82.3775386792937,         !- Vertex 4 Xcoordinate
    130.509213768343,         !- Vertex 4 Ycoordinate
    14.7;                     !- Vertex 4 Zcoordinate

FENESTRATIONSURFACE:DETAILED,
    Block Poly_10_Transport Storey 3 Wall 0027 window,    !- Name
    Window,                   !- Surface Type
    HSCWZ_Public&Industrial_2015_Win,    !- Construction Name
    Block Poly_10_Transport Storey 3 Wall 0027,    !- Building Surface Name
    ,                         !- Outside Boundary Condition Object
    autocalculate,            !- View Factor to Ground
    ,                         !- Frame and Divider Name
    1,                        !- Multiplier
    autocalculate,            !- Number of Vertices
    82.37452670072878,        !- Vertex 1 Xcoordinate
    130.511972801344,         !- Vertex 1 Ycoordinate
    14.7,                     !- Vertex 1 Zcoordinate
    82.37452670072878,        !- Vertex 2 Xcoordinate
    130.511972801344,         !- Vertex 2 Ycoordinate
    13.3,                     !- Vertex 2 Zcoordinate
    79.72999800803166,        !- Vertex 3 Xcoordinate
    132.10011076130579,       !- Vertex 3 Ycoordinate
    13.3,                     !- Vertex 3 Zcoordinate
    79.72999800803166,        !- Vertex 4 Xcoordinate
    132.10011076130579,       !- Vertex 4 Ycoordinate
    14.7;                     !- Vertex 4 Zcoordinate

FENESTRATIONSURFACE:DETAILED,
    Block Poly_10_Transport Storey 3 Wall 0028 window,    !- Name
    Window,                   !- Surface Type
    HSCWZ_Public&Industrial_2015_Win,    !- Construction Name
    Block Poly_10_Transport Storey 3 Wall 0028,    !- Building Surface Name
    ,                         !- Outside Boundary Condition Object
    autocalculate,            !- View Factor to Ground
    ,                         !- Frame and Divider Name
    1,                        !- Multiplier
    autocalculate,            !- Number of Vertices
    79.7252824045573,         !- Vertex 1 Xcoordinate
    132.10039939863142,       !- Vertex 1 Ycoordinate
    14.7,                     !- Vertex 1 Zcoordinate
    79.7252824045573,         !- Vertex 2 Xcoordinate
    132.10039939863142,       !- Vertex 2 Ycoordinate
    13.3,                     !- Vertex 2 Zcoordinate
    72.94803535549718,        !- Vertex 3 Xcoordinate
    131.088958815285,         !- Vertex 3 Ycoordinate
    13.3,                     !- Vertex 3 Zcoordinate
    72.94803535549718,        !- Vertex 4 Xcoordinate
    131.088958815285,         !- Vertex 4 Ycoordinate
    14.7;                     !- Vertex 4 Zcoordinate

FENESTRATIONSURFACE:DETAILED,
    Block Poly_10_Transport Storey 3 Wall 0029 window,    !- Name
    Window,                   !- Surface Type
    HSCWZ_Public&Industrial_2015_Win,    !- Construction Name
    Block Poly_10_Transport Storey 3 Wall 0029,    !- Building Surface Name
    ,                         !- Outside Boundary Condition Object
    autocalculate,            !- View Factor to Ground
    ,                         !- Frame and Divider Name
    1,                        !- Multiplier
    autocalculate,            !- Number of Vertices
    72.94237639118568,        !- Vertex 1 Xcoordinate
    131.08659996733397,       !- Vertex 1 Ycoordinate
    14.7,                     !- Vertex 1 Zcoordinate
    72.94237639118568,        !- Vertex 2 Xcoordinate
    131.08659996733397,       !- Vertex 2 Ycoordinate
    13.3,                     !- Vertex 2 Zcoordinate
    68.41301274586819,        !- Vertex 3 Xcoordinate
    127.38506234448079,       !- Vertex 3 Ycoordinate
    13.3,                     !- Vertex 3 Zcoordinate
    68.41301274586819,        !- Vertex 4 Xcoordinate
    127.38506234448079,       !- Vertex 4 Ycoordinate
    14.7;                     !- Vertex 4 Zcoordinate

FENESTRATIONSURFACE:DETAILED,
    Block Poly_10_Transport Storey 3 Wall 0030 window,    !- Name
    Window,                   !- Surface Type
    HSCWZ_Public&Industrial_2015_Win,    !- Construction Name
    Block Poly_10_Transport Storey 3 Wall 0030,    !- Building Surface Name
    ,                         !- Outside Boundary Condition Object
    autocalculate,            !- View Factor to Ground
    ,                         !- Frame and Divider Name
    1,                        !- Multiplier
    autocalculate,            !- Number of Vertices
    68.40967359607271,        !- Vertex 1 Xcoordinate
    127.38156189097326,       !- Vertex 1 Ycoordinate
    14.7,                     !- Vertex 1 Zcoordinate
    68.40967359607271,        !- Vertex 2 Xcoordinate
    127.38156189097326,       !- Vertex 2 Ycoordinate
    13.3,                     !- Vertex 2 Zcoordinate
    66.26741595003591,        !- Vertex 3 Xcoordinate
    124.08919340578606,       !- Vertex 3 Ycoordinate
    13.3,                     !- Vertex 3 Zcoordinate
    66.26741595003591,        !- Vertex 4 Xcoordinate
    124.08919340578606,       !- Vertex 4 Ycoordinate
    14.7;                     !- Vertex 4 Zcoordinate

FENESTRATIONSURFACE:DETAILED,
    Block Poly_10_Transport Storey 3 Wall 0031 window,    !- Name
    Window,                   !- Surface Type
    HSCWZ_Public&Industrial_2015_Win,    !- Construction Name
    Block Poly_10_Transport Storey 3 Wall 0031,    !- Building Surface Name
    ,                         !- Outside Boundary Condition Object
    autocalculate,            !- View Factor to Ground
    ,                         !- Frame and Divider Name
    1,                        !- Multiplier
    autocalculate,            !- Number of Vertices
    66.26661588183391,        !- Vertex 1 Xcoordinate
    124.08992540911515,       !- Vertex 1 Ycoordinate
    14.7,                     !- Vertex 1 Zcoordinate
    66.26661588183391,        !- Vertex 2 Xcoordinate
    124.08992540911515,       !- Vertex 2 Ycoordinate
    13.3,                     !- Vertex 2 Zcoordinate
    66.81033726029078,        !- Vertex 3 Xcoordinate
    128.84483654582195,       !- Vertex 3 Ycoordinate
    13.3,                     !- Vertex 3 Zcoordinate
    66.81033726029078,        !- Vertex 4 Xcoordinate
    128.84483654582195,       !- Vertex 4 Ycoordinate
    14.7;                     !- Vertex 4 Zcoordinate

FENESTRATIONSURFACE:DETAILED,
    Block Poly_10_Transport Storey 4 Wall 0001 window,    !- Name
    Window,                   !- Surface Type
    HSCWZ_Public&Industrial_2015_Win,    !- Construction Name
    Block Poly_10_Transport Storey 4 Wall 0001,    !- Building Surface Name
    ,                         !- Outside Boundary Condition Object
    autocalculate,            !- View Factor to Ground
    ,                         !- Frame and Divider Name
    1,                        !- Multiplier
    autocalculate,            !- Number of Vertices
    66.80897665694737,        !- Vertex 1 Xcoordinate
    128.85982324562568,       !- Vertex 1 Ycoordinate
    18.7,                     !- Vertex 1 Zcoordinate
    66.80897665694737,        !- Vertex 2 Xcoordinate
    128.85982324562568,       !- Vertex 2 Ycoordinate
    17.3,                     !- Vertex 2 Zcoordinate
    63.546769798368594,       !- Vertex 3 Xcoordinate
    154.0483383167761,        !- Vertex 3 Ycoordinate
    17.3,                     !- Vertex 3 Zcoordinate
    63.546769798368594,       !- Vertex 4 Xcoordinate
    154.0483383167761,        !- Vertex 4 Ycoordinate
    18.7;                     !- Vertex 4 Zcoordinate

FENESTRATIONSURFACE:DETAILED,
    Block Poly_10_Transport Storey 4 Wall 0002 window,    !- Name
    Window,                   !- Surface Type
    HSCWZ_Public&Industrial_2015_Win,    !- Construction Name
    Block Poly_10_Transport Storey 4 Wall 0002,    !- Building Surface Name
    ,                         !- Outside Boundary Condition Object
    autocalculate,            !- View Factor to Ground
    ,                         !- Frame and Divider Name
    1,                        !- Multiplier
    autocalculate,            !- Number of Vertices
    63.543588831320434,       !- Vertex 1 Xcoordinate
    154.06606714951945,       !- Vertex 1 Ycoordinate
    18.7,                     !- Vertex 1 Zcoordinate
    63.543588831320434,       !- Vertex 2 Xcoordinate
    154.06606714951945,       !- Vertex 2 Ycoordinate
    17.3,                     !- Vertex 2 Zcoordinate
    60.45022352767593,        !- Vertex 3 Xcoordinate
    164.29975989960926,       !- Vertex 3 Ycoordinate
    17.3,                     !- Vertex 3 Zcoordinate
    60.45022352767593,        !- Vertex 4 Xcoordinate
    164.29975989960926,       !- Vertex 4 Ycoordinate
    18.7;                     !- Vertex 4 Zcoordinate

FENESTRATIONSURFACE:DETAILED,
    Block Poly_10_Transport Storey 4 Wall 0003 window,    !- Name
    Window,                   !- Surface Type
    HSCWZ_Public&Industrial_2015_Win,    !- Construction Name
    Block Poly_10_Transport Storey 4 Wall 0003,    !- Building Surface Name
    ,                         !- Outside Boundary Condition Object
    autocalculate,            !- View Factor to Ground
    ,                         !- Frame and Divider Name
    1,                        !- Multiplier
    autocalculate,            !- Number of Vertices
    60.44641840140798,        !- Vertex 1 Xcoordinate
    164.31045737049658,       !- Vertex 1 Ycoordinate
    18.7,                     !- Vertex 1 Zcoordinate
    60.44641840140798,        !- Vertex 2 Xcoordinate
    164.31045737049658,       !- Vertex 2 Ycoordinate
    17.3,                     !- Vertex 2 Zcoordinate
    55.93714142168642,        !- Vertex 3 Xcoordinate
    175.45031145329472,       !- Vertex 3 Ycoordinate
    17.3,                     !- Vertex 3 Zcoordinate
    55.93714142168642,        !- Vertex 4 Xcoordinate
    175.45031145329472,       !- Vertex 4 Ycoordinate
    18.7;                     !- Vertex 4 Zcoordinate

FENESTRATIONSURFACE:DETAILED,
    Block Poly_10_Transport Storey 4 Wall 0004 window,    !- Name
    Window,                   !- Surface Type
    HSCWZ_Public&Industrial_2015_Win,    !- Construction Name
    Block Poly_10_Transport Storey 4 Wall 0004,    !- Building Surface Name
    ,                         !- Outside Boundary Condition Object
    autocalculate,            !- View Factor to Ground
    ,                         !- Frame and Divider Name
    1,                        !- Multiplier
    autocalculate,            !- Number of Vertices
    55.92644801071478,        !- Vertex 1 Xcoordinate
    175.4560066668971,        !- Vertex 1 Ycoordinate
    18.7,                     !- Vertex 1 Zcoordinate
    55.92644801071478,        !- Vertex 2 Xcoordinate
    175.4560066668971,        !- Vertex 2 Ycoordinate
    17.3,                     !- Vertex 2 Zcoordinate
    39.070289869102595,       !- Vertex 3 Xcoordinate
    175.69518936167447,       !- Vertex 3 Ycoordinate
    17.3,                     !- Vertex 3 Zcoordinate
    39.070289869102595,       !- Vertex 4 Xcoordinate
    175.69518936167447,       !- Vertex 4 Ycoordinate
    18.7;                     !- Vertex 4 Zcoordinate

FENESTRATIONSURFACE:DETAILED,
    Block Poly_10_Transport Storey 4 Wall 0005 window,    !- Name
    Window,                   !- Surface Type
    HSCWZ_Public&Industrial_2015_Win,    !- Construction Name
    Block Poly_10_Transport Storey 4 Wall 0005,    !- Building Surface Name
    ,                         !- Outside Boundary Condition Object
    autocalculate,            !- View Factor to Ground
    ,                         !- Frame and Divider Name
    1,                        !- Multiplier
    autocalculate,            !- Number of Vertices
    39.06153276445667,        !- Vertex 1 Xcoordinate
    175.69287449041963,       !- Vertex 1 Ycoordinate
    18.7,                     !- Vertex 1 Zcoordinate
    39.06153276445667,        !- Vertex 2 Xcoordinate
    175.69287449041963,       !- Vertex 2 Ycoordinate
    17.3,                     !- Vertex 2 Zcoordinate
    38.420995823521196,       !- Vertex 3 Xcoordinate
    170.8285790284665,        !- Vertex 3 Ycoordinate
    17.3,                     !- Vertex 3 Zcoordinate
    38.420995823521196,       !- Vertex 4 Xcoordinate
    170.8285790284665,        !- Vertex 4 Ycoordinate
    18.7;                     !- Vertex 4 Zcoordinate

FENESTRATIONSURFACE:DETAILED,
    Block Poly_10_Transport Storey 4 Wall 0006 window,    !- Name
    Window,                   !- Surface Type
    HSCWZ_Public&Industrial_2015_Win,    !- Construction Name
    Block Poly_10_Transport Storey 4 Wall 0006,    !- Building Surface Name
    ,                         !- Outside Boundary Condition Object
    autocalculate,            !- View Factor to Ground
    ,                         !- Frame and Divider Name
    1,                        !- Multiplier
    autocalculate,            !- Number of Vertices
    38.41813960677412,        !- Vertex 1 Xcoordinate
    170.82551521077963,       !- Vertex 1 Ycoordinate
    18.7,                     !- Vertex 1 Zcoordinate
    38.41813960677412,        !- Vertex 2 Xcoordinate
    170.82551521077963,       !- Vertex 2 Ycoordinate
    17.3,                     !- Vertex 2 Zcoordinate
    33.351955487041934,       !- Vertex 3 Xcoordinate
    169.56830293437255,       !- Vertex 3 Ycoordinate
    17.3,                     !- Vertex 3 Zcoordinate
    33.351955487041934,       !- Vertex 4 Xcoordinate
    169.56830293437255,       !- Vertex 4 Ycoordinate
    18.7;                     !- Vertex 4 Zcoordinate

FENESTRATIONSURFACE:DETAILED,
    Block Poly_10_Transport Storey 4 Wall 0007 window,    !- Name
    Window,                   !- Surface Type
    HSCWZ_Public&Industrial_2015_Win,    !- Construction Name
    Block Poly_10_Transport Storey 4 Wall 0007,    !- Building Surface Name
    ,                         !- Outside Boundary Condition Object
    autocalculate,            !- View Factor to Ground
    ,                         !- Frame and Divider Name
    1,                        !- Multiplier
    autocalculate,            !- Number of Vertices
    33.34729543640936,        !- Vertex 1 Xcoordinate
    169.535551657642,         !- Vertex 1 Ycoordinate
    18.7,                     !- Vertex 1 Zcoordinate
    33.34729543640936,        !- Vertex 2 Xcoordinate
    169.535551657642,         !- Vertex 2 Ycoordinate
    17.3,                     !- Vertex 2 Zcoordinate
    29.102698392251448,       !- Vertex 3 Xcoordinate
    105.35571302639065,       !- Vertex 3 Ycoordinate
    17.3,                     !- Vertex 3 Zcoordinate
    29.102698392251448,       !- Vertex 4 Xcoordinate
    105.35571302639065,       !- Vertex 4 Ycoordinate
    18.7;                     !- Vertex 4 Zcoordinate

FENESTRATIONSURFACE:DETAILED,
    Block Poly_10_Transport Storey 4 Wall 0008 window,    !- Name
    Window,                   !- Surface Type
    HSCWZ_Public&Industrial_2015_Win,    !- Construction Name
    Block Poly_10_Transport Storey 4 Wall 0008,    !- Building Surface Name
    ,                         !- Outside Boundary Condition Object
    autocalculate,            !- View Factor to Ground
    ,                         !- Frame and Divider Name
    1,                        !- Multiplier
    autocalculate,            !- Number of Vertices
    29.095898617572995,       !- Vertex 1 Xcoordinate
    105.30320189114055,       !- Vertex 1 Ycoordinate
    18.7,                     !- Vertex 1 Zcoordinate
    29.095898617572995,       !- Vertex 2 Xcoordinate
    105.30320189114055,       !- Vertex 2 Ycoordinate
    17.3,                     !- Vertex 2 Zcoordinate
    19.7545458541816,         !- Vertex 3 Xcoordinate
    64.56579229269782,        !- Vertex 3 Ycoordinate
    17.3,                     !- Vertex 3 Zcoordinate
    19.7545458541816,         !- Vertex 4 Xcoordinate
    64.56579229269782,        !- Vertex 4 Ycoordinate
    18.7;                     !- Vertex 4 Zcoordinate

FENESTRATIONSURFACE:DETAILED,
    Block Poly_10_Transport Storey 4 Wall 0009 window,    !- Name
    Window,                   !- Surface Type
    HSCWZ_Public&Industrial_2015_Win,    !- Construction Name
    Block Poly_10_Transport Storey 4 Wall 0009,    !- Building Surface Name
    ,                         !- Outside Boundary Condition Object
    autocalculate,            !- View Factor to Ground
    ,                         !- Frame and Divider Name
    1,                        !- Multiplier
    autocalculate,            !- Number of Vertices
    19.743352718322388,       !- Vertex 1 Xcoordinate
    64.52620438811742,        !- Vertex 1 Ycoordinate
    18.7,                     !- Vertex 1 Zcoordinate
    19.743352718322388,       !- Vertex 2 Xcoordinate
    64.52620438811742,        !- Vertex 2 Ycoordinate
    17.3,                     !- Vertex 2 Zcoordinate
    6.720820035008393,        !- Vertex 3 Xcoordinate
    26.16698063491471,        !- Vertex 3 Ycoordinate
    17.3,                     !- Vertex 3 Zcoordinate
    6.720820035008393,        !- Vertex 4 Xcoordinate
    26.16698063491471,        !- Vertex 4 Ycoordinate
    18.7;                     !- Vertex 4 Zcoordinate

FENESTRATIONSURFACE:DETAILED,
    Block Poly_10_Transport Storey 4 Wall 0010 window,    !- Name
    Window,                   !- Surface Type
    HSCWZ_Public&Industrial_2015_Win,    !- Construction Name
    Block Poly_10_Transport Storey 4 Wall 0010,    !- Building Surface Name
    ,                         !- Outside Boundary Condition Object
    autocalculate,            !- View Factor to Ground
    ,                         !- Frame and Divider Name
    1,                        !- Multiplier
    autocalculate,            !- Number of Vertices
    6.716818249678065,        !- Vertex 1 Xcoordinate
    26.147025463439757,       !- Vertex 1 Ycoordinate
    18.7,                     !- Vertex 1 Zcoordinate
    6.716818249678065,        !- Vertex 2 Xcoordinate
    26.147025463439757,       !- Vertex 2 Ycoordinate
    17.3,                     !- Vertex 2 Zcoordinate
    11.743783842995006,       !- Vertex 3 Xcoordinate
    24.635816609684145,       !- Vertex 3 Ycoordinate
    17.3,                     !- Vertex 3 Zcoordinate
    11.743783842995006,       !- Vertex 4 Xcoordinate
    24.635816609684145,       !- Vertex 4 Ycoordinate
    18.7;                     !- Vertex 4 Zcoordinate

FENESTRATIONSURFACE:DETAILED,
    Block Poly_10_Transport Storey 4 Wall 0011 window,    !- Name
    Window,                   !- Surface Type
    HSCWZ_Public&Industrial_2015_Win,    !- Construction Name
    Block Poly_10_Transport Storey 4 Wall 0011,    !- Building Surface Name
    ,                         !- Outside Boundary Condition Object
    autocalculate,            !- View Factor to Ground
    ,                         !- Frame and Divider Name
    1,                        !- Multiplier
    autocalculate,            !- Number of Vertices
    11.740426691869565,       !- Vertex 1 Xcoordinate
    24.62433381801727,        !- Vertex 1 Ycoordinate
    18.7,                     !- Vertex 1 Zcoordinate
    11.740426691869565,       !- Vertex 2 Xcoordinate
    24.62433381801727,        !- Vertex 2 Ycoordinate
    17.3,                     !- Vertex 2 Zcoordinate
    0.00587315,               !- Vertex 3 Xcoordinate
    3.1929249213610316,       !- Vertex 3 Ycoordinate
    17.3,                     !- Vertex 3 Zcoordinate
    0.00587315,               !- Vertex 4 Xcoordinate
    3.1929249213610316,       !- Vertex 4 Ycoordinate
    18.7;                     !- Vertex 4 Zcoordinate

FENESTRATIONSURFACE:DETAILED,
    Block Poly_10_Transport Storey 4 Wall 0012 window,    !- Name
    Window,                   !- Surface Type
    HSCWZ_Public&Industrial_2015_Win,    !- Construction Name
    Block Poly_10_Transport Storey 4 Wall 0012,    !- Building Surface Name
    ,                         !- Outside Boundary Condition Object
    autocalculate,            !- View Factor to Ground
    ,                         !- Frame and Divider Name
    1,                        !- Multiplier
    autocalculate,            !- Number of Vertices
    0.002742528,              !- Vertex 1 Xcoordinate
    3.1806073912365833,       !- Vertex 1 Ycoordinate
    18.7,                     !- Vertex 1 Zcoordinate
    0.002742528,              !- Vertex 2 Xcoordinate
    3.1806073912365833,       !- Vertex 2 Ycoordinate
    17.3,                     !- Vertex 2 Zcoordinate
    5.482314279814251,        !- Vertex 3 Xcoordinate
    0.001591099,              !- Vertex 3 Ycoordinate
    17.3,                     !- Vertex 3 Zcoordinate
    5.482314279814251,        !- Vertex 4 Xcoordinate
    0.001591099,              !- Vertex 4 Ycoordinate
    18.7;                     !- Vertex 4 Zcoordinate

FENESTRATIONSURFACE:DETAILED,
    Block Poly_10_Transport Storey 4 Wall 0013 window,    !- Name
    Window,                   !- Surface Type
    HSCWZ_Public&Industrial_2015_Win,    !- Construction Name
    Block Poly_10_Transport Storey 4 Wall 0013,    !- Building Surface Name
    ,                         !- Outside Boundary Condition Object
    autocalculate,            !- View Factor to Ground
    ,                         !- Frame and Divider Name
    1,                        !- Multiplier
    autocalculate,            !- Number of Vertices
    5.492298542694014,        !- Vertex 1 Xcoordinate
    0.006383097,              !- Vertex 1 Ycoordinate
    18.7,                     !- Vertex 1 Zcoordinate
    5.492298542694014,        !- Vertex 2 Xcoordinate
    0.006383097,              !- Vertex 2 Ycoordinate
    17.3,                     !- Vertex 2 Zcoordinate
    19.961284025050873,       !- Vertex 3 Xcoordinate
    12.759810365804473,       !- Vertex 3 Ycoordinate
    17.3,                     !- Vertex 3 Zcoordinate
    19.961284025050873,       !- Vertex 4 Xcoordinate
    12.759810365804473,       !- Vertex 4 Ycoordinate
    18.7;                     !- Vertex 4 Zcoordinate

FENESTRATIONSURFACE:DETAILED,
    Block Poly_10_Transport Storey 4 Wall 0014 window,    !- Name
    Window,                   !- Surface Type
    HSCWZ_Public&Industrial_2015_Win,    !- Construction Name
    Block Poly_10_Transport Storey 4 Wall 0014,    !- Building Surface Name
    ,                         !- Outside Boundary Condition Object
    autocalculate,            !- View Factor to Ground
    ,                         !- Frame and Divider Name
    1,                        !- Multiplier
    autocalculate,            !- Number of Vertices
    19.980350184645417,       !- Vertex 1 Xcoordinate
    12.779718065040885,       !- Vertex 1 Ycoordinate
    18.7,                     !- Vertex 1 Zcoordinate
    19.980350184645417,       !- Vertex 2 Xcoordinate
    12.779718065040885,       !- Vertex 2 Ycoordinate
    17.3,                     !- Vertex 2 Zcoordinate
    43.6055515721837,         !- Vertex 3 Xcoordinate
    39.801873870321785,       !- Vertex 3 Ycoordinate
    17.3,                     !- Vertex 3 Zcoordinate
    43.6055515721837,         !- Vertex 4 Xcoordinate
    39.801873870321785,       !- Vertex 4 Ycoordinate
    18.7;                     !- Vertex 4 Zcoordinate

FENESTRATIONSURFACE:DETAILED,
    Block Poly_10_Transport Storey 4 Wall 0015 window,    !- Name
    Window,                   !- Surface Type
    HSCWZ_Public&Industrial_2015_Win,    !- Construction Name
    Block Poly_10_Transport Storey 4 Wall 0015,    !- Building Surface Name
    ,                         !- Outside Boundary Condition Object
    autocalculate,            !- View Factor to Ground
    ,                         !- Frame and Divider Name
    1,                        !- Multiplier
    autocalculate,            !- Number of Vertices
    43.621634478755496,       !- Vertex 1 Xcoordinate
    39.823209790562515,       !- Vertex 1 Ycoordinate
    18.7,                     !- Vertex 1 Zcoordinate
    43.621634478755496,       !- Vertex 2 Xcoordinate
    39.823209790562515,       !- Vertex 2 Ycoordinate
    17.3,                     !- Vertex 2 Zcoordinate
    52.13008042167154,        !- Vertex 3 Xcoordinate
    55.430222626260246,       !- Vertex 3 Ycoordinate
    17.3,                     !- Vertex 3 Zcoordinate
    52.13008042167154,        !- Vertex 4 Xcoordinate
    55.430222626260246,       !- Vertex 4 Ycoordinate
    18.7;                     !- Vertex 4 Zcoordinate

FENESTRATIONSURFACE:DETAILED,
    Block Poly_10_Transport Storey 4 Wall 0016 window,    !- Name
    Window,                   !- Surface Type
    HSCWZ_Public&Industrial_2015_Win,    !- Construction Name
    Block Poly_10_Transport Storey 4 Wall 0016,    !- Building Surface Name
    ,                         !- Outside Boundary Condition Object
    autocalculate,            !- View Factor to Ground
    ,                         !- Frame and Divider Name
    1,                        !- Multiplier
    autocalculate,            !- Number of Vertices
    52.13764172552515,        !- Vertex 1 Xcoordinate
    55.445692519133445,       !- Vertex 1 Ycoordinate
    18.7,                     !- Vertex 1 Zcoordinate
    52.13764172552515,        !- Vertex 2 Xcoordinate
    55.445692519133445,       !- Vertex 2 Ycoordinate
    17.3,                     !- Vertex 2 Zcoordinate
    58.736680882122485,       !- Vertex 3 Xcoordinate
    70.74752564408118,        !- Vertex 3 Ycoordinate
    17.3,                     !- Vertex 3 Zcoordinate
    58.736680882122485,       !- Vertex 4 Xcoordinate
    70.74752564408118,        !- Vertex 4 Ycoordinate
    18.7;                     !- Vertex 4 Zcoordinate

FENESTRATIONSURFACE:DETAILED,
    Block Poly_10_Transport Storey 4 Wall 0017 window,    !- Name
    Window,                   !- Surface Type
    HSCWZ_Public&Industrial_2015_Win,    !- Construction Name
    Block Poly_10_Transport Storey 4 Wall 0017,    !- Building Surface Name
    ,                         !- Outside Boundary Condition Object
    autocalculate,            !- View Factor to Ground
    ,                         !- Frame and Divider Name
    1,                        !- Multiplier
    autocalculate,            !- Number of Vertices
    58.74168087117694,        !- Vertex 1 Xcoordinate
    70.76391883768095,        !- Vertex 1 Ycoordinate
    18.7,                     !- Vertex 1 Zcoordinate
    58.74168087117694,        !- Vertex 2 Xcoordinate
    70.76391883768095,        !- Vertex 2 Ycoordinate
    17.3,                     !- Vertex 2 Zcoordinate
    62.132619845384326,       !- Vertex 3 Xcoordinate
    88.21568652506964,        !- Vertex 3 Ycoordinate
    17.3,                     !- Vertex 3 Zcoordinate
    62.132619845384326,       !- Vertex 4 Xcoordinate
    88.21568652506964,        !- Vertex 4 Ycoordinate
    18.7;                     !- Vertex 4 Zcoordinate

FENESTRATIONSURFACE:DETAILED,
    Block Poly_10_Transport Storey 4 Wall 0018 window,    !- Name
    Window,                   !- Surface Type
    HSCWZ_Public&Industrial_2015_Win,    !- Construction Name
    Block Poly_10_Transport Storey 4 Wall 0018,    !- Building Surface Name
    ,                         !- Outside Boundary Condition Object
    autocalculate,            !- View Factor to Ground
    ,                         !- Frame and Divider Name
    1,                        !- Multiplier
    autocalculate,            !- Number of Vertices
    62.135296851385036,       !- Vertex 1 Xcoordinate
    88.23299963525706,        !- Vertex 1 Ycoordinate
    18.7,                     !- Vertex 1 Zcoordinate
    62.135296851385036,       !- Vertex 2 Xcoordinate
    88.23299963525706,        !- Vertex 2 Ycoordinate
    17.3,                     !- Vertex 2 Zcoordinate
    64.09301586659846,        !- Vertex 3 Xcoordinate
    105.37282610232732,       !- Vertex 3 Ycoordinate
    17.3,                     !- Vertex 3 Zcoordinate
    64.09301586659846,        !- Vertex 4 Xcoordinate
    105.37282610232732,       !- Vertex 4 Ycoordinate
    18.7;                     !- Vertex 4 Zcoordinate

FENESTRATIONSURFACE:DETAILED,
    Block Poly_10_Transport Storey 4 Wall 0019 window,    !- Name
    Window,                   !- Surface Type
    HSCWZ_Public&Industrial_2015_Win,    !- Construction Name
    Block Poly_10_Transport Storey 4 Wall 0019,    !- Building Surface Name
    ,                         !- Outside Boundary Condition Object
    autocalculate,            !- View Factor to Ground
    ,                         !- Frame and Divider Name
    1,                        !- Multiplier
    autocalculate,            !- Number of Vertices
    64.09562935655998,        !- Vertex 1 Xcoordinate
    105.37894228553563,       !- Vertex 1 Ycoordinate
    18.7,                     !- Vertex 1 Zcoordinate
    64.09562935655998,        !- Vertex 2 Xcoordinate
    105.37894228553563,       !- Vertex 2 Ycoordinate
    17.3,                     !- Vertex 2 Zcoordinate
    67.35966328445062,        !- Vertex 3 Xcoordinate
    100.45924986865208,       !- Vertex 3 Ycoordinate
    17.3,                     !- Vertex 3 Zcoordinate
    67.35966328445062,        !- Vertex 4 Xcoordinate
    100.45924986865208,       !- Vertex 4 Ycoordinate
    18.7;                     !- Vertex 4 Zcoordinate

FENESTRATIONSURFACE:DETAILED,
    Block Poly_10_Transport Storey 4 Wall 0020 window,    !- Name
    Window,                   !- Surface Type
    HSCWZ_Public&Industrial_2015_Win,    !- Construction Name
    Block Poly_10_Transport Storey 4 Wall 0020,    !- Building Surface Name
    ,                         !- Outside Boundary Condition Object
    autocalculate,            !- View Factor to Ground
    ,                         !- Frame and Divider Name
    1,                        !- Multiplier
    autocalculate,            !- Number of Vertices
    67.36280725186973,        !- Vertex 1 Xcoordinate
    100.45571287182602,       !- Vertex 1 Ycoordinate
    18.7,                     !- Vertex 1 Zcoordinate
    67.36280725186973,        !- Vertex 2 Xcoordinate
    100.45571287182602,       !- Vertex 2 Ycoordinate
    17.3,                     !- Vertex 2 Zcoordinate
    70.38042022735297,        !- Vertex 3 Xcoordinate
    98.308485630234,          !- Vertex 3 Ycoordinate
    17.3,                     !- Vertex 3 Zcoordinate
    70.38042022735297,        !- Vertex 4 Xcoordinate
    98.308485630234,          !- Vertex 4 Ycoordinate
    18.7;                     !- Vertex 4 Zcoordinate

FENESTRATIONSURFACE:DETAILED,
    Block Poly_10_Transport Storey 4 Wall 0021 window,    !- Name
    Window,                   !- Surface Type
    HSCWZ_Public&Industrial_2015_Win,    !- Construction Name
    Block Poly_10_Transport Storey 4 Wall 0021,    !- Building Surface Name
    ,                         !- Outside Boundary Condition Object
    autocalculate,            !- View Factor to Ground
    ,                         !- Frame and Divider Name
    1,                        !- Multiplier
    autocalculate,            !- Number of Vertices
    70.38655633752275,        !- Vertex 1 Xcoordinate
    98.30751162184728,        !- Vertex 1 Ycoordinate
    18.7,                     !- Vertex 1 Zcoordinate
    70.38655633752275,        !- Vertex 2 Xcoordinate
    98.30751162184728,        !- Vertex 2 Ycoordinate
    17.3,                     !- Vertex 2 Zcoordinate
    79.62889148126781,        !- Vertex 3 Xcoordinate
    98.50867010676907,        !- Vertex 3 Ycoordinate
    17.3,                     !- Vertex 3 Zcoordinate
    79.62889148126781,        !- Vertex 4 Xcoordinate
    98.50867010676907,        !- Vertex 4 Ycoordinate
    18.7;                     !- Vertex 4 Zcoordinate

FENESTRATIONSURFACE:DETAILED,
    Block Poly_10_Transport Storey 4 Wall 0022 window,    !- Name
    Window,                   !- Surface Type
    HSCWZ_Public&Industrial_2015_Win,    !- Construction Name
    Block Poly_10_Transport Storey 4 Wall 0022,    !- Building Surface Name
    ,                         !- Outside Boundary Condition Object
    autocalculate,            !- View Factor to Ground
    ,                         !- Frame and Divider Name
    1,                        !- Multiplier
    autocalculate,            !- Number of Vertices
    79.63578422716292,        !- Vertex 1 Xcoordinate
    98.51062341062539,        !- Vertex 1 Ycoordinate
    18.7,                     !- Vertex 1 Zcoordinate
    79.63578422716292,        !- Vertex 2 Xcoordinate
    98.51062341062539,        !- Vertex 2 Ycoordinate
    17.3,                     !- Vertex 2 Zcoordinate
    84.16515538184267,        !- Vertex 3 Xcoordinate
    102.21216603060998,       !- Vertex 3 Ycoordinate
    17.3,                     !- Vertex 3 Zcoordinate
    84.16515538184267,        !- Vertex 4 Xcoordinate
    102.21216603060998,       !- Vertex 4 Ycoordinate
    18.7;                     !- Vertex 4 Zcoordinate

FENESTRATIONSURFACE:DETAILED,
    Block Poly_10_Transport Storey 4 Wall 0023 window,    !- Name
    Window,                   !- Surface Type
    HSCWZ_Public&Industrial_2015_Win,    !- Construction Name
    Block Poly_10_Transport Storey 4 Wall 0023,    !- Building Surface Name
    ,                         !- Outside Boundary Condition Object
    autocalculate,            !- View Factor to Ground
    ,                         !- Frame and Divider Name
    1,                        !- Multiplier
    autocalculate,            !- Number of Vertices
    84.16854927469258,        !- Vertex 1 Xcoordinate
    102.21616462495713,       !- Vertex 1 Ycoordinate
    18.7,                     !- Vertex 1 Zcoordinate
    84.16854927469258,        !- Vertex 2 Xcoordinate
    102.21616462495713,       !- Vertex 2 Ycoordinate
    17.3,                     !- Vertex 2 Zcoordinate
    86.42017603413687,        !- Vertex 3 Xcoordinate
    106.50381351058768,       !- Vertex 3 Ycoordinate
    17.3,                     !- Vertex 3 Zcoordinate
    86.42017603413687,        !- Vertex 4 Xcoordinate
    106.50381351058768,       !- Vertex 4 Ycoordinate
    18.7;                     !- Vertex 4 Zcoordinate

FENESTRATIONSURFACE:DETAILED,
    Block Poly_10_Transport Storey 4 Wall 0024 window,    !- Name
    Window,                   !- Surface Type
    HSCWZ_Public&Industrial_2015_Win,    !- Construction Name
    Block Poly_10_Transport Storey 4 Wall 0024,    !- Building Surface Name
    ,                         !- Outside Boundary Condition Object
    autocalculate,            !- View Factor to Ground
    ,                         !- Frame and Divider Name
    1,                        !- Multiplier
    autocalculate,            !- Number of Vertices
    86.42179956696893,        !- Vertex 1 Xcoordinate
    106.51071982857701,       !- Vertex 1 Ycoordinate
    18.7,                     !- Vertex 1 Zcoordinate
    86.42179956696893,        !- Vertex 2 Xcoordinate
    106.51071982857701,       !- Vertex 2 Ycoordinate
    17.3,                     !- Vertex 2 Zcoordinate
    87.41399140595493,        !- Vertex 3 Xcoordinate
    116.02189428565163,       !- Vertex 3 Ycoordinate
    17.3,                     !- Vertex 3 Zcoordinate
    87.41399140595493,        !- Vertex 4 Xcoordinate
    116.02189428565163,       !- Vertex 4 Ycoordinate
    18.7;                     !- Vertex 4 Zcoordinate

FENESTRATIONSURFACE:DETAILED,
    Block Poly_10_Transport Storey 4 Wall 0025 window,    !- Name
    Window,                   !- Surface Type
    HSCWZ_Public&Industrial_2015_Win,    !- Construction Name
    Block Poly_10_Transport Storey 4 Wall 0025,    !- Building Surface Name
    ,                         !- Outside Boundary Condition Object
    autocalculate,            !- View Factor to Ground
    ,                         !- Frame and Divider Name
    1,                        !- Multiplier
    autocalculate,            !- Number of Vertices
    87.41365707024268,        !- Vertex 1 Xcoordinate
    116.03193272572267,       !- Vertex 1 Ycoordinate
    18.7,                     !- Vertex 1 Zcoordinate
    87.41365707024268,        !- Vertex 2 Xcoordinate
    116.03193272572267,       !- Vertex 2 Ycoordinate
    17.3,                     !- Vertex 2 Zcoordinate
    85.75346247818054,        !- Vertex 3 Xcoordinate
    126.57756153059867,       !- Vertex 3 Ycoordinate
    17.3,                     !- Vertex 3 Zcoordinate
    85.75346247818054,        !- Vertex 4 Xcoordinate
    126.57756153059867,       !- Vertex 4 Ycoordinate
    18.7;                     !- Vertex 4 Zcoordinate

FENESTRATIONSURFACE:DETAILED,
    Block Poly_10_Transport Storey 4 Wall 0026 window,    !- Name
    Window,                   !- Surface Type
    HSCWZ_Public&Industrial_2015_Win,    !- Construction Name
    Block Poly_10_Transport Storey 4 Wall 0026,    !- Building Surface Name
    ,                         !- Outside Boundary Condition Object
    autocalculate,            !- View Factor to Ground
    ,                         !- Frame and Divider Name
    1,                        !- Multiplier
    autocalculate,            !- Number of Vertices
    85.75094315932563,        !- Vertex 1 Xcoordinate
    126.58480379225081,       !- Vertex 1 Ycoordinate
    18.7,                     !- Vertex 1 Zcoordinate
    85.75094315932563,        !- Vertex 2 Xcoordinate
    126.58480379225081,       !- Vertex 2 Ycoordinate
    17.3,                     !- Vertex 2 Zcoordinate
    82.3775386792937,         !- Vertex 3 Xcoordinate
    130.509213768343,         !- Vertex 3 Ycoordinate
    17.3,                     !- Vertex 3 Zcoordinate
    82.3775386792937,         !- Vertex 4 Xcoordinate
    130.509213768343,         !- Vertex 4 Ycoordinate
    18.7;                     !- Vertex 4 Zcoordinate

FENESTRATIONSURFACE:DETAILED,
    Block Poly_10_Transport Storey 4 Wall 0027 window,    !- Name
    Window,                   !- Surface Type
    HSCWZ_Public&Industrial_2015_Win,    !- Construction Name
    Block Poly_10_Transport Storey 4 Wall 0027,    !- Building Surface Name
    ,                         !- Outside Boundary Condition Object
    autocalculate,            !- View Factor to Ground
    ,                         !- Frame and Divider Name
    1,                        !- Multiplier
    autocalculate,            !- Number of Vertices
    82.37452670072878,        !- Vertex 1 Xcoordinate
    130.511972801344,         !- Vertex 1 Ycoordinate
    18.7,                     !- Vertex 1 Zcoordinate
    82.37452670072878,        !- Vertex 2 Xcoordinate
    130.511972801344,         !- Vertex 2 Ycoordinate
    17.3,                     !- Vertex 2 Zcoordinate
    79.72999800803166,        !- Vertex 3 Xcoordinate
    132.10011076130579,       !- Vertex 3 Ycoordinate
    17.3,                     !- Vertex 3 Zcoordinate
    79.72999800803166,        !- Vertex 4 Xcoordinate
    132.10011076130579,       !- Vertex 4 Ycoordinate
    18.7;                     !- Vertex 4 Zcoordinate

FENESTRATIONSURFACE:DETAILED,
    Block Poly_10_Transport Storey 4 Wall 0028 window,    !- Name
    Window,                   !- Surface Type
    HSCWZ_Public&Industrial_2015_Win,    !- Construction Name
    Block Poly_10_Transport Storey 4 Wall 0028,    !- Building Surface Name
    ,                         !- Outside Boundary Condition Object
    autocalculate,            !- View Factor to Ground
    ,                         !- Frame and Divider Name
    1,                        !- Multiplier
    autocalculate,            !- Number of Vertices
    79.7252824045573,         !- Vertex 1 Xcoordinate
    132.10039939863142,       !- Vertex 1 Ycoordinate
    18.7,                     !- Vertex 1 Zcoordinate
    79.7252824045573,         !- Vertex 2 Xcoordinate
    132.10039939863142,       !- Vertex 2 Ycoordinate
    17.3,                     !- Vertex 2 Zcoordinate
    72.94803535549718,        !- Vertex 3 Xcoordinate
    131.088958815285,         !- Vertex 3 Ycoordinate
    17.3,                     !- Vertex 3 Zcoordinate
    72.94803535549718,        !- Vertex 4 Xcoordinate
    131.088958815285,         !- Vertex 4 Ycoordinate
    18.7;                     !- Vertex 4 Zcoordinate

FENESTRATIONSURFACE:DETAILED,
    Block Poly_10_Transport Storey 4 Wall 0029 window,    !- Name
    Window,                   !- Surface Type
    HSCWZ_Public&Industrial_2015_Win,    !- Construction Name
    Block Poly_10_Transport Storey 4 Wall 0029,    !- Building Surface Name
    ,                         !- Outside Boundary Condition Object
    autocalculate,            !- View Factor to Ground
    ,                         !- Frame and Divider Name
    1,                        !- Multiplier
    autocalculate,            !- Number of Vertices
    72.94237639118568,        !- Vertex 1 Xcoordinate
    131.08659996733397,       !- Vertex 1 Ycoordinate
    18.7,                     !- Vertex 1 Zcoordinate
    72.94237639118568,        !- Vertex 2 Xcoordinate
    131.08659996733397,       !- Vertex 2 Ycoordinate
    17.3,                     !- Vertex 2 Zcoordinate
    68.41301274586819,        !- Vertex 3 Xcoordinate
    127.38506234448079,       !- Vertex 3 Ycoordinate
    17.3,                     !- Vertex 3 Zcoordinate
    68.41301274586819,        !- Vertex 4 Xcoordinate
    127.38506234448079,       !- Vertex 4 Ycoordinate
    18.7;                     !- Vertex 4 Zcoordinate

FENESTRATIONSURFACE:DETAILED,
    Block Poly_10_Transport Storey 4 Wall 0030 window,    !- Name
    Window,                   !- Surface Type
    HSCWZ_Public&Industrial_2015_Win,    !- Construction Name
    Block Poly_10_Transport Storey 4 Wall 0030,    !- Building Surface Name
    ,                         !- Outside Boundary Condition Object
    autocalculate,            !- View Factor to Ground
    ,                         !- Frame and Divider Name
    1,                        !- Multiplier
    autocalculate,            !- Number of Vertices
    68.40967359607271,        !- Vertex 1 Xcoordinate
    127.38156189097326,       !- Vertex 1 Ycoordinate
    18.7,                     !- Vertex 1 Zcoordinate
    68.40967359607271,        !- Vertex 2 Xcoordinate
    127.38156189097326,       !- Vertex 2 Ycoordinate
    17.3,                     !- Vertex 2 Zcoordinate
    66.26741595003591,        !- Vertex 3 Xcoordinate
    124.08919340578606,       !- Vertex 3 Ycoordinate
    17.3,                     !- Vertex 3 Zcoordinate
    66.26741595003591,        !- Vertex 4 Xcoordinate
    124.08919340578606,       !- Vertex 4 Ycoordinate
    18.7;                     !- Vertex 4 Zcoordinate

FENESTRATIONSURFACE:DETAILED,
    Block Poly_10_Transport Storey 4 Wall 0031 window,    !- Name
    Window,                   !- Surface Type
    HSCWZ_Public&Industrial_2015_Win,    !- Construction Name
    Block Poly_10_Transport Storey 4 Wall 0031,    !- Building Surface Name
    ,                         !- Outside Boundary Condition Object
    autocalculate,            !- View Factor to Ground
    ,                         !- Frame and Divider Name
    1,                        !- Multiplier
    autocalculate,            !- Number of Vertices
    66.26661588183391,        !- Vertex 1 Xcoordinate
    124.08992540911515,       !- Vertex 1 Ycoordinate
    18.7,                     !- Vertex 1 Zcoordinate
    66.26661588183391,        !- Vertex 2 Xcoordinate
    124.08992540911515,       !- Vertex 2 Ycoordinate
    17.3,                     !- Vertex 2 Zcoordinate
    66.81033726029078,        !- Vertex 3 Xcoordinate
    128.84483654582195,       !- Vertex 3 Ycoordinate
    17.3,                     !- Vertex 3 Zcoordinate
    66.81033726029078,        !- Vertex 4 Xcoordinate
    128.84483654582195,       !- Vertex 4 Ycoordinate
    18.7;                     !- Vertex 4 Zcoordinate

PEOPLE,
    People_Block Poly_10_Transport Storey 0,    !- Name
    Block Poly_10_Transport Storey 0,    !- Zone or ZoneList or Space or SpaceList Name
    People_Schedule,          !- Number of People Schedule Name
    Area/Person,              !- Number of People Calculation Method
    ,                         !- Number of People
    ,                         !- People per Floor Area
    0.67,                     !- Floor Area per Person
    0.3,                      !- Fraction Radiant
    autocalculate,            !- Sensible Heat Fraction
    CN_GenericActivityLevel,    !- Activity Level Schedule Name
    3.82e-08,                 !- Carbon Dioxide Generation Rate
    No,                       !- Enable ASHRAE 55 Comfort Warnings
    ZoneAveraged,             !- Mean Radiant Temperature Calculation Type
    ,                         !- Surface NameAngle Factor List Name
    ,                         !- Work Efficiency Schedule Name
    ClothingInsulationSchedule,    !- Clothing Insulation Calculation Method
    ,                         !- Clothing Insulation Calculation Method Schedule Name
    ,                         !- Clothing Insulation Schedule Name
    ,                         !- Air Velocity Schedule Name
    ,                         !- Thermal Comfort Model 1 Type
    ,                         !- Thermal Comfort Model 2 Type
    ,                         !- Thermal Comfort Model 3 Type
    ,                         !- Thermal Comfort Model 4 Type
    ,                         !- Thermal Comfort Model 5 Type
    ,                         !- Thermal Comfort Model 6 Type
    ,                         !- Thermal Comfort Model 7 Type
    ,                         !- Ankle Level Air Velocity Schedule Name
    15.56,                    !- Cold Stress Temperature Threshold
    30;                       !- Heat Stress Temperature Threshold

PEOPLE,
    People_Block Poly_10_Transport Storey 1,    !- Name
    Block Poly_10_Transport Storey 1,    !- Zone or ZoneList or Space or SpaceList Name
    People_Schedule,          !- Number of People Schedule Name
    Area/Person,              !- Number of People Calculation Method
    ,                         !- Number of People
    ,                         !- People per Floor Area
    0.67,                     !- Floor Area per Person
    0.3,                      !- Fraction Radiant
    autocalculate,            !- Sensible Heat Fraction
    CN_GenericActivityLevel,    !- Activity Level Schedule Name
    3.82e-08,                 !- Carbon Dioxide Generation Rate
    No,                       !- Enable ASHRAE 55 Comfort Warnings
    ZoneAveraged,             !- Mean Radiant Temperature Calculation Type
    ,                         !- Surface NameAngle Factor List Name
    ,                         !- Work Efficiency Schedule Name
    ClothingInsulationSchedule,    !- Clothing Insulation Calculation Method
    ,                         !- Clothing Insulation Calculation Method Schedule Name
    ,                         !- Clothing Insulation Schedule Name
    ,                         !- Air Velocity Schedule Name
    ,                         !- Thermal Comfort Model 1 Type
    ,                         !- Thermal Comfort Model 2 Type
    ,                         !- Thermal Comfort Model 3 Type
    ,                         !- Thermal Comfort Model 4 Type
    ,                         !- Thermal Comfort Model 5 Type
    ,                         !- Thermal Comfort Model 6 Type
    ,                         !- Thermal Comfort Model 7 Type
    ,                         !- Ankle Level Air Velocity Schedule Name
    15.56,                    !- Cold Stress Temperature Threshold
    30;                       !- Heat Stress Temperature Threshold

PEOPLE,
    People_Block Poly_10_Transport Storey 2,    !- Name
    Block Poly_10_Transport Storey 2,    !- Zone or ZoneList or Space or SpaceList Name
    People_Schedule,          !- Number of People Schedule Name
    Area/Person,              !- Number of People Calculation Method
    ,                         !- Number of People
    ,                         !- People per Floor Area
    0.67,                     !- Floor Area per Person
    0.3,                      !- Fraction Radiant
    autocalculate,            !- Sensible Heat Fraction
    CN_GenericActivityLevel,    !- Activity Level Schedule Name
    3.82e-08,                 !- Carbon Dioxide Generation Rate
    No,                       !- Enable ASHRAE 55 Comfort Warnings
    ZoneAveraged,             !- Mean Radiant Temperature Calculation Type
    ,                         !- Surface NameAngle Factor List Name
    ,                         !- Work Efficiency Schedule Name
    ClothingInsulationSchedule,    !- Clothing Insulation Calculation Method
    ,                         !- Clothing Insulation Calculation Method Schedule Name
    ,                         !- Clothing Insulation Schedule Name
    ,                         !- Air Velocity Schedule Name
    ,                         !- Thermal Comfort Model 1 Type
    ,                         !- Thermal Comfort Model 2 Type
    ,                         !- Thermal Comfort Model 3 Type
    ,                         !- Thermal Comfort Model 4 Type
    ,                         !- Thermal Comfort Model 5 Type
    ,                         !- Thermal Comfort Model 6 Type
    ,                         !- Thermal Comfort Model 7 Type
    ,                         !- Ankle Level Air Velocity Schedule Name
    15.56,                    !- Cold Stress Temperature Threshold
    30;                       !- Heat Stress Temperature Threshold

PEOPLE,
    People_Block Poly_10_Transport Storey 3,    !- Name
    Block Poly_10_Transport Storey 3,    !- Zone or ZoneList or Space or SpaceList Name
    People_Schedule,          !- Number of People Schedule Name
    Area/Person,              !- Number of People Calculation Method
    ,                         !- Number of People
    ,                         !- People per Floor Area
    0.67,                     !- Floor Area per Person
    0.3,                      !- Fraction Radiant
    autocalculate,            !- Sensible Heat Fraction
    CN_GenericActivityLevel,    !- Activity Level Schedule Name
    3.82e-08,                 !- Carbon Dioxide Generation Rate
    No,                       !- Enable ASHRAE 55 Comfort Warnings
    ZoneAveraged,             !- Mean Radiant Temperature Calculation Type
    ,                         !- Surface NameAngle Factor List Name
    ,                         !- Work Efficiency Schedule Name
    ClothingInsulationSchedule,    !- Clothing Insulation Calculation Method
    ,                         !- Clothing Insulation Calculation Method Schedule Name
    ,                         !- Clothing Insulation Schedule Name
    ,                         !- Air Velocity Schedule Name
    ,                         !- Thermal Comfort Model 1 Type
    ,                         !- Thermal Comfort Model 2 Type
    ,                         !- Thermal Comfort Model 3 Type
    ,                         !- Thermal Comfort Model 4 Type
    ,                         !- Thermal Comfort Model 5 Type
    ,                         !- Thermal Comfort Model 6 Type
    ,                         !- Thermal Comfort Model 7 Type
    ,                         !- Ankle Level Air Velocity Schedule Name
    15.56,                    !- Cold Stress Temperature Threshold
    30;                       !- Heat Stress Temperature Threshold

PEOPLE,
    People_Block Poly_10_Transport Storey 4,    !- Name
    Block Poly_10_Transport Storey 4,    !- Zone or ZoneList or Space or SpaceList Name
    People_Schedule,          !- Number of People Schedule Name
    Area/Person,              !- Number of People Calculation Method
    ,                         !- Number of People
    ,                         !- People per Floor Area
    0.67,                     !- Floor Area per Person
    0.3,                      !- Fraction Radiant
    autocalculate,            !- Sensible Heat Fraction
    CN_GenericActivityLevel,    !- Activity Level Schedule Name
    3.82e-08,                 !- Carbon Dioxide Generation Rate
    No,                       !- Enable ASHRAE 55 Comfort Warnings
    ZoneAveraged,             !- Mean Radiant Temperature Calculation Type
    ,                         !- Surface NameAngle Factor List Name
    ,                         !- Work Efficiency Schedule Name
    ClothingInsulationSchedule,    !- Clothing Insulation Calculation Method
    ,                         !- Clothing Insulation Calculation Method Schedule Name
    ,                         !- Clothing Insulation Schedule Name
    ,                         !- Air Velocity Schedule Name
    ,                         !- Thermal Comfort Model 1 Type
    ,                         !- Thermal Comfort Model 2 Type
    ,                         !- Thermal Comfort Model 3 Type
    ,                         !- Thermal Comfort Model 4 Type
    ,                         !- Thermal Comfort Model 5 Type
    ,                         !- Thermal Comfort Model 6 Type
    ,                         !- Thermal Comfort Model 7 Type
    ,                         !- Ankle Level Air Velocity Schedule Name
    15.56,                    !- Cold Stress Temperature Threshold
    30;                       !- Heat Stress Temperature Threshold

LIGHTS,
    Lights_Block Poly_10_Transport Storey 0,    !- Name
    Block Poly_10_Transport Storey 0,    !- Zone or ZoneList or Space or SpaceList Name
    Lights_Schedule,          !- Schedule Name
    Watts/Area,               !- Design Level Calculation Method
    ,                         !- Lighting Level
    7,                        !- Watts per Zone Floor Area
    ,                         !- Watts per Person
    0,                        !- Return Air Fraction
    0,                        !- Fraction Radiant
    0,                        !- Fraction Visible
    1,                        !- Fraction Replaceable
    General,                  !- EndUse Subcategory
    No,                       !- Return Air Fraction Calculated from Plenum Temperature
    0,                        !- Return Air Fraction Function of Plenum Temperature Coefficient 1
    0;                        !- Return Air Fraction Function of Plenum Temperature Coefficient 2

LIGHTS,
    Lights_Block Poly_10_Transport Storey 1,    !- Name
    Block Poly_10_Transport Storey 1,    !- Zone or ZoneList or Space or SpaceList Name
    Lights_Schedule,          !- Schedule Name
    Watts/Area,               !- Design Level Calculation Method
    ,                         !- Lighting Level
    7,                        !- Watts per Zone Floor Area
    ,                         !- Watts per Person
    0,                        !- Return Air Fraction
    0,                        !- Fraction Radiant
    0,                        !- Fraction Visible
    1,                        !- Fraction Replaceable
    General,                  !- EndUse Subcategory
    No,                       !- Return Air Fraction Calculated from Plenum Temperature
    0,                        !- Return Air Fraction Function of Plenum Temperature Coefficient 1
    0;                        !- Return Air Fraction Function of Plenum Temperature Coefficient 2

LIGHTS,
    Lights_Block Poly_10_Transport Storey 2,    !- Name
    Block Poly_10_Transport Storey 2,    !- Zone or ZoneList or Space or SpaceList Name
    Lights_Schedule,          !- Schedule Name
    Watts/Area,               !- Design Level Calculation Method
    ,                         !- Lighting Level
    7,                        !- Watts per Zone Floor Area
    ,                         !- Watts per Person
    0,                        !- Return Air Fraction
    0,                        !- Fraction Radiant
    0,                        !- Fraction Visible
    1,                        !- Fraction Replaceable
    General,                  !- EndUse Subcategory
    No,                       !- Return Air Fraction Calculated from Plenum Temperature
    0,                        !- Return Air Fraction Function of Plenum Temperature Coefficient 1
    0;                        !- Return Air Fraction Function of Plenum Temperature Coefficient 2

LIGHTS,
    Lights_Block Poly_10_Transport Storey 3,    !- Name
    Block Poly_10_Transport Storey 3,    !- Zone or ZoneList or Space or SpaceList Name
    Lights_Schedule,          !- Schedule Name
    Watts/Area,               !- Design Level Calculation Method
    ,                         !- Lighting Level
    7,                        !- Watts per Zone Floor Area
    ,                         !- Watts per Person
    0,                        !- Return Air Fraction
    0,                        !- Fraction Radiant
    0,                        !- Fraction Visible
    1,                        !- Fraction Replaceable
    General,                  !- EndUse Subcategory
    No,                       !- Return Air Fraction Calculated from Plenum Temperature
    0,                        !- Return Air Fraction Function of Plenum Temperature Coefficient 1
    0;                        !- Return Air Fraction Function of Plenum Temperature Coefficient 2

LIGHTS,
    Lights_Block Poly_10_Transport Storey 4,    !- Name
    Block Poly_10_Transport Storey 4,    !- Zone or ZoneList or Space or SpaceList Name
    Lights_Schedule,          !- Schedule Name
    Watts/Area,               !- Design Level Calculation Method
    ,                         !- Lighting Level
    7,                        !- Watts per Zone Floor Area
    ,                         !- Watts per Person
    0,                        !- Return Air Fraction
    0,                        !- Fraction Radiant
    0,                        !- Fraction Visible
    1,                        !- Fraction Replaceable
    General,                  !- EndUse Subcategory
    No,                       !- Return Air Fraction Calculated from Plenum Temperature
    0,                        !- Return Air Fraction Function of Plenum Temperature Coefficient 1
    0;                        !- Return Air Fraction Function of Plenum Temperature Coefficient 2

ELECTRICEQUIPMENT,
    ElectricEquipment_Block Poly_10_Transport Storey 0,    !- Name
    Block Poly_10_Transport Storey 0,    !- Zone or ZoneList or Space or SpaceList Name
    ElectricEquipment_Schedule,    !- Schedule Name
    Watts/Area,               !- Design Level Calculation Method
    ,                         !- Design Level
    25,                       !- Watts per Zone Floor Area
    ,                         !- Watts per Person
    0,                        !- Fraction Latent
    0,                        !- Fraction Radiant
    0,                        !- Fraction Lost
    General;                  !- EndUse Subcategory

ELECTRICEQUIPMENT,
    ElectricEquipment_Block Poly_10_Transport Storey 1,    !- Name
    Block Poly_10_Transport Storey 1,    !- Zone or ZoneList or Space or SpaceList Name
    ElectricEquipment_Schedule,    !- Schedule Name
    Watts/Area,               !- Design Level Calculation Method
    ,                         !- Design Level
    25,                       !- Watts per Zone Floor Area
    ,                         !- Watts per Person
    0,                        !- Fraction Latent
    0,                        !- Fraction Radiant
    0,                        !- Fraction Lost
    General;                  !- EndUse Subcategory

ELECTRICEQUIPMENT,
    ElectricEquipment_Block Poly_10_Transport Storey 2,    !- Name
    Block Poly_10_Transport Storey 2,    !- Zone or ZoneList or Space or SpaceList Name
    ElectricEquipment_Schedule,    !- Schedule Name
    Watts/Area,               !- Design Level Calculation Method
    ,                         !- Design Level
    25,                       !- Watts per Zone Floor Area
    ,                         !- Watts per Person
    0,                        !- Fraction Latent
    0,                        !- Fraction Radiant
    0,                        !- Fraction Lost
    General;                  !- EndUse Subcategory

ELECTRICEQUIPMENT,
    ElectricEquipment_Block Poly_10_Transport Storey 3,    !- Name
    Block Poly_10_Transport Storey 3,    !- Zone or ZoneList or Space or SpaceList Name
    ElectricEquipment_Schedule,    !- Schedule Name
    Watts/Area,               !- Design Level Calculation Method
    ,                         !- Design Level
    25,                       !- Watts per Zone Floor Area
    ,                         !- Watts per Person
    0,                        !- Fraction Latent
    0,                        !- Fraction Radiant
    0,                        !- Fraction Lost
    General;                  !- EndUse Subcategory

ELECTRICEQUIPMENT,
    ElectricEquipment_Block Poly_10_Transport Storey 4,    !- Name
    Block Poly_10_Transport Storey 4,    !- Zone or ZoneList or Space or SpaceList Name
    ElectricEquipment_Schedule,    !- Schedule Name
    Watts/Area,               !- Design Level Calculation Method
    ,                         !- Design Level
    25,                       !- Watts per Zone Floor Area
    ,                         !- Watts per Person
    0,                        !- Fraction Latent
    0,                        !- Fraction Radiant
    0,                        !- Fraction Lost
    General;                  !- EndUse Subcategory

ZONEINFILTRATION:DESIGNFLOWRATE,
    Infil 1,                  !- Name
    Block Poly_10_Transport Storey 0,    !- Zone or ZoneList or Space or SpaceList Name
    AirEx_ConditionedTime_Schedule,    !- Schedule Name
    AirChanges/Hour,          !- Design Flow Rate Calculation Method
    ,                         !- Design Flow Rate
    ,                         !- Flow Rate per Floor Area
    ,                         !- Flow Rate per Exterior Surface Area
    1,                        !- Air Changes per Hour
    1,                        !- Constant Term Coefficient
    0,                        !- Temperature Term Coefficient
    0,                        !- Velocity Term Coefficient
    0;                        !- Velocity Squared Term Coefficient

ZONEINFILTRATION:DESIGNFLOWRATE,
    Infil 2,                  !- Name
    Block Poly_10_Transport Storey 1,    !- Zone or ZoneList or Space or SpaceList Name
    AirEx_ConditionedTime_Schedule,    !- Schedule Name
    AirChanges/Hour,          !- Design Flow Rate Calculation Method
    ,                         !- Design Flow Rate
    ,                         !- Flow Rate per Floor Area
    ,                         !- Flow Rate per Exterior Surface Area
    1,                        !- Air Changes per Hour
    1,                        !- Constant Term Coefficient
    0,                        !- Temperature Term Coefficient
    0,                        !- Velocity Term Coefficient
    0;                        !- Velocity Squared Term Coefficient

ZONEINFILTRATION:DESIGNFLOWRATE,
    Infil 3,                  !- Name
    Block Poly_10_Transport Storey 2,    !- Zone or ZoneList or Space or SpaceList Name
    AirEx_ConditionedTime_Schedule,    !- Schedule Name
    AirChanges/Hour,          !- Design Flow Rate Calculation Method
    ,                         !- Design Flow Rate
    ,                         !- Flow Rate per Floor Area
    ,                         !- Flow Rate per Exterior Surface Area
    1,                        !- Air Changes per Hour
    1,                        !- Constant Term Coefficient
    0,                        !- Temperature Term Coefficient
    0,                        !- Velocity Term Coefficient
    0;                        !- Velocity Squared Term Coefficient

ZONEINFILTRATION:DESIGNFLOWRATE,
    Infil 4,                  !- Name
    Block Poly_10_Transport Storey 3,    !- Zone or ZoneList or Space or SpaceList Name
    AirEx_ConditionedTime_Schedule,    !- Schedule Name
    AirChanges/Hour,          !- Design Flow Rate Calculation Method
    ,                         !- Design Flow Rate
    ,                         !- Flow Rate per Floor Area
    ,                         !- Flow Rate per Exterior Surface Area
    1,                        !- Air Changes per Hour
    1,                        !- Constant Term Coefficient
    0,                        !- Temperature Term Coefficient
    0,                        !- Velocity Term Coefficient
    0;                        !- Velocity Squared Term Coefficient

ZONEINFILTRATION:DESIGNFLOWRATE,
    Infil 5,                  !- Name
    Block Poly_10_Transport Storey 4,    !- Zone or ZoneList or Space or SpaceList Name
    AirEx_ConditionedTime_Schedule,    !- Schedule Name
    AirChanges/Hour,          !- Design Flow Rate Calculation Method
    ,                         !- Design Flow Rate
    ,                         !- Flow Rate per Floor Area
    ,                         !- Flow Rate per Exterior Surface Area
    1,                        !- Air Changes per Hour
    1,                        !- Constant Term Coefficient
    0,                        !- Temperature Term Coefficient
    0,                        !- Velocity Term Coefficient
    0;                        !- Velocity Squared Term Coefficient

HVACTEMPLATE:THERMOSTAT,
    HVACTemp,                 !- Name
    Heating_SP_Schedule,      !- Heating Setpoint Schedule Name
    ,                         !- Constant Heating Setpoint
    Cooling_SP_Schedule;      !- Cooling Setpoint Schedule Name

HVACTEMPLATE:ZONE:IDEALLOADSAIRSYSTEM,
    Block Poly_10_Transport Storey 0,    !- Zone Name
    HVACTemp,                 !- Template Thermostat Name
    HVAC_ConditionedTime_Schedule,    !- System Availability Schedule Name
    50,                       !- Maximum Heating Supply Air Temperature
    13,                       !- Minimum Cooling Supply Air Temperature
    0.0156,                   !- Maximum Heating Supply Air Humidity Ratio
    0.0077,                   !- Minimum Cooling Supply Air Humidity Ratio
    NoLimit,                  !- Heating Limit
    ,                         !- Maximum Heating Air Flow Rate
    ,                         !- Maximum Sensible Heating Capacity
    NoLimit,                  !- Cooling Limit
    ,                         !- Maximum Cooling Air Flow Rate
    ,                         !- Maximum Total Cooling Capacity
    Heating_Period_Schedule,    !- Heating Availability Schedule Name
    Cooling_Period_Schedule,    !- Cooling Availability Schedule Name
    ConstantSensibleHeatRatio,    !- Dehumidification Control Type
    0.7,                      !- Cooling Sensible Heat Ratio
    60,                       !- Dehumidification Setpoint
    None,                     !- Humidification Control Type
    30,                       !- Humidification Setpoint
    None,                     !- Outdoor Air Method
    0.00944,                  !- Outdoor Air Flow Rate per Person
    0,                        !- Outdoor Air Flow Rate per Zone Floor Area
    0,                        !- Outdoor Air Flow Rate per Zone
    ,                         !- Design Specification Outdoor Air Object Name
    None,                     !- Demand Controlled Ventilation Type
    NoEconomizer,             !- Outdoor Air Economizer Type
    None,                     !- Heat Recovery Type
    0.7,                      !- Sensible Heat Recovery Effectiveness
    0.65;                     !- Latent Heat Recovery Effectiveness

HVACTEMPLATE:ZONE:IDEALLOADSAIRSYSTEM,
    Block Poly_10_Transport Storey 1,    !- Zone Name
    HVACTemp,                 !- Template Thermostat Name
    HVAC_ConditionedTime_Schedule,    !- System Availability Schedule Name
    50,                       !- Maximum Heating Supply Air Temperature
    13,                       !- Minimum Cooling Supply Air Temperature
    0.0156,                   !- Maximum Heating Supply Air Humidity Ratio
    0.0077,                   !- Minimum Cooling Supply Air Humidity Ratio
    NoLimit,                  !- Heating Limit
    ,                         !- Maximum Heating Air Flow Rate
    ,                         !- Maximum Sensible Heating Capacity
    NoLimit,                  !- Cooling Limit
    ,                         !- Maximum Cooling Air Flow Rate
    ,                         !- Maximum Total Cooling Capacity
    Heating_Period_Schedule,    !- Heating Availability Schedule Name
    Cooling_Period_Schedule,    !- Cooling Availability Schedule Name
    ConstantSensibleHeatRatio,    !- Dehumidification Control Type
    0.7,                      !- Cooling Sensible Heat Ratio
    60,                       !- Dehumidification Setpoint
    None,                     !- Humidification Control Type
    30,                       !- Humidification Setpoint
    None,                     !- Outdoor Air Method
    0.00944,                  !- Outdoor Air Flow Rate per Person
    0,                        !- Outdoor Air Flow Rate per Zone Floor Area
    0,                        !- Outdoor Air Flow Rate per Zone
    ,                         !- Design Specification Outdoor Air Object Name
    None,                     !- Demand Controlled Ventilation Type
    NoEconomizer,             !- Outdoor Air Economizer Type
    None,                     !- Heat Recovery Type
    0.7,                      !- Sensible Heat Recovery Effectiveness
    0.65;                     !- Latent Heat Recovery Effectiveness

HVACTEMPLATE:ZONE:IDEALLOADSAIRSYSTEM,
    Block Poly_10_Transport Storey 2,    !- Zone Name
    HVACTemp,                 !- Template Thermostat Name
    HVAC_ConditionedTime_Schedule,    !- System Availability Schedule Name
    50,                       !- Maximum Heating Supply Air Temperature
    13,                       !- Minimum Cooling Supply Air Temperature
    0.0156,                   !- Maximum Heating Supply Air Humidity Ratio
    0.0077,                   !- Minimum Cooling Supply Air Humidity Ratio
    NoLimit,                  !- Heating Limit
    ,                         !- Maximum Heating Air Flow Rate
    ,                         !- Maximum Sensible Heating Capacity
    NoLimit,                  !- Cooling Limit
    ,                         !- Maximum Cooling Air Flow Rate
    ,                         !- Maximum Total Cooling Capacity
    Heating_Period_Schedule,    !- Heating Availability Schedule Name
    Cooling_Period_Schedule,    !- Cooling Availability Schedule Name
    ConstantSensibleHeatRatio,    !- Dehumidification Control Type
    0.7,                      !- Cooling Sensible Heat Ratio
    60,                       !- Dehumidification Setpoint
    None,                     !- Humidification Control Type
    30,                       !- Humidification Setpoint
    None,                     !- Outdoor Air Method
    0.00944,                  !- Outdoor Air Flow Rate per Person
    0,                        !- Outdoor Air Flow Rate per Zone Floor Area
    0,                        !- Outdoor Air Flow Rate per Zone
    ,                         !- Design Specification Outdoor Air Object Name
    None,                     !- Demand Controlled Ventilation Type
    NoEconomizer,             !- Outdoor Air Economizer Type
    None,                     !- Heat Recovery Type
    0.7,                      !- Sensible Heat Recovery Effectiveness
    0.65;                     !- Latent Heat Recovery Effectiveness

HVACTEMPLATE:ZONE:IDEALLOADSAIRSYSTEM,
    Block Poly_10_Transport Storey 3,    !- Zone Name
    HVACTemp,                 !- Template Thermostat Name
    HVAC_ConditionedTime_Schedule,    !- System Availability Schedule Name
    50,                       !- Maximum Heating Supply Air Temperature
    13,                       !- Minimum Cooling Supply Air Temperature
    0.0156,                   !- Maximum Heating Supply Air Humidity Ratio
    0.0077,                   !- Minimum Cooling Supply Air Humidity Ratio
    NoLimit,                  !- Heating Limit
    ,                         !- Maximum Heating Air Flow Rate
    ,                         !- Maximum Sensible Heating Capacity
    NoLimit,                  !- Cooling Limit
    ,                         !- Maximum Cooling Air Flow Rate
    ,                         !- Maximum Total Cooling Capacity
    Heating_Period_Schedule,    !- Heating Availability Schedule Name
    Cooling_Period_Schedule,    !- Cooling Availability Schedule Name
    ConstantSensibleHeatRatio,    !- Dehumidification Control Type
    0.7,                      !- Cooling Sensible Heat Ratio
    60,                       !- Dehumidification Setpoint
    None,                     !- Humidification Control Type
    30,                       !- Humidification Setpoint
    None,                     !- Outdoor Air Method
    0.00944,                  !- Outdoor Air Flow Rate per Person
    0,                        !- Outdoor Air Flow Rate per Zone Floor Area
    0,                        !- Outdoor Air Flow Rate per Zone
    ,                         !- Design Specification Outdoor Air Object Name
    None,                     !- Demand Controlled Ventilation Type
    NoEconomizer,             !- Outdoor Air Economizer Type
    None,                     !- Heat Recovery Type
    0.7,                      !- Sensible Heat Recovery Effectiveness
    0.65;                     !- Latent Heat Recovery Effectiveness

HVACTEMPLATE:ZONE:IDEALLOADSAIRSYSTEM,
    Block Poly_10_Transport Storey 4,    !- Zone Name
    HVACTemp,                 !- Template Thermostat Name
    HVAC_ConditionedTime_Schedule,    !- System Availability Schedule Name
    50,                       !- Maximum Heating Supply Air Temperature
    13,                       !- Minimum Cooling Supply Air Temperature
    0.0156,                   !- Maximum Heating Supply Air Humidity Ratio
    0.0077,                   !- Minimum Cooling Supply Air Humidity Ratio
    NoLimit,                  !- Heating Limit
    ,                         !- Maximum Heating Air Flow Rate
    ,                         !- Maximum Sensible Heating Capacity
    NoLimit,                  !- Cooling Limit
    ,                         !- Maximum Cooling Air Flow Rate
    ,                         !- Maximum Total Cooling Capacity
    Heating_Period_Schedule,    !- Heating Availability Schedule Name
    Cooling_Period_Schedule,    !- Cooling Availability Schedule Name
    ConstantSensibleHeatRatio,    !- Dehumidification Control Type
    0.7,                      !- Cooling Sensible Heat Ratio
    60,                       !- Dehumidification Setpoint
    None,                     !- Humidification Control Type
    30,                       !- Humidification Setpoint
    None,                     !- Outdoor Air Method
    0.00944,                  !- Outdoor Air Flow Rate per Person
    0,                        !- Outdoor Air Flow Rate per Zone Floor Area
    0,                        !- Outdoor Air Flow Rate per Zone
    ,                         !- Design Specification Outdoor Air Object Name
    None,                     !- Demand Controlled Ventilation Type
    NoEconomizer,             !- Outdoor Air Economizer Type
    None,                     !- Heat Recovery Type
    0.7,                      !- Sensible Heat Recovery Effectiveness
    0.65;                     !- Latent Heat Recovery Effectiveness

OUTPUT:VARIABLEDICTIONARY,
    regular,                  !- Key Field
    Unsorted;                 !- Sort Option

OUTPUT:CONSTRUCTIONS,
    Constructions,            !- Details Type 1
    Constructions;            !- Details Type 2

OUTPUT:TABLE:SUMMARYREPORTS,
    AllSummary;               !- Report 1 Name

OUTPUTCONTROL:TABLE:STYLE,
    Comma,                    !- Column Separator
    JtoKWH;                   !- Unit Conversion

OUTPUT:VARIABLE,
    *,                        !- Key Value
    Zone Ideal Loads Supply Air Total Heating Rate,    !- Variable Name
    Hourly;                   !- Reporting Frequency

OUTPUT:VARIABLE,
    *,                        !- Key Value
    Zone Ideal Loads Supply Air Total Cooling Rate,    !- Variable Name
    Hourly;                   !- Reporting Frequency

OUTPUT:VARIABLE,
    *,                        !- Key Value
    Zone Ideal Loads Zone Total Heating Rate,    !- Variable Name
    Hourly;                   !- Reporting Frequency

OUTPUT:VARIABLE,
    *,                        !- Key Value
    Zone Ideal Loads Zone Total Cooling Rate,    !- Variable Name
    Hourly;                   !- Reporting Frequency

OUTPUT:VARIABLE,
    *,                        !- Key Value
    Zone Air Temperature,     !- Variable Name
    Hourly;                   !- Reporting Frequency

OUTPUT:METER:METERFILEONLY,
    DistrictCooling:Facility,    !- Key Name
    Hourly;                   !- Reporting Frequency

OUTPUT:METER:METERFILEONLY,
    DistrictHeatingWater:Facility,    !- Key Name
    Hourly;                   !- Reporting Frequency

OUTPUT:METER:METERFILEONLY,
    Electricity:Facility,     !- Key Name
    Hourly;                   !- Reporting Frequency

OUTPUT:METER:METERFILEONLY,
    Electricity:Building,     !- Key Name
    Hourly;                   !- Reporting Frequency

OUTPUT:SQLITE,
    SimpleAndTabular,         !- Option Type
    UseOutputControlTableStyle;    !- Unit Conversion for Tabular Data