!- Windows Line endings 

VERSION,
    23.2.0;                   !- Version Identifier

SIMULATIONCONTROL,
    Yes,                      !- Do Zone Sizing Calculation
    Yes,                      !- Do System Sizing Calculation
    No,                       !- Do Plant Sizing Calculation
    No,                       !- Run Simulation for Sizing Periods
    Yes,                      !- Run Simulation for Weather File Run Periods
    No,                       !- Do HVAC Sizing Simulation for Sizing Periods
    1;                        !- Maximum Number of HVAC Sizing Simulation Passes

BUILDING,
    shang4hai3shi4_Residential_1_0_7_1995,    !- Name
    0,                        !- North Axis
    City,                     !- Terrain
    0.04,                     !- Loads Convergence Tolerance Value
    0.4,                      !- Temperature Convergence Tolerance Value
    FullExterior,             !- Solar Distribution
    25,                       !- Maximum Number of Warmup Days
    1;                        !- Minimum Number of Warmup Days

SHADOWCALCULATION,
    PolygonClipping,          !- Shading Calculation Method
    Periodic,                 !- Shading Calculation Update Frequency Method
    20,                       !- Shading Calculation Update Frequency
    15000,                    !- Maximum Figures in Shadow Overlap Calculations
    SutherlandHodgman,        !- Polygon Clipping Algorithm
    512,                      !- Pixel Counting Resolution
    SimpleSkyDiffuseModeling,    !- Sky Diffuse Modeling Algorithm
    No,                       !- Output External Shading Calculation Results
    No,                       !- Disable SelfShading Within Shading Zone Groups
    No;                       !- Disable SelfShading From Shading Zone Groups to Other Zones

HEATBALANCEALGORITHM,
    ConductionTransferFunction,    !- Algorithm
    200,                      !- Surface Temperature Upper Limit
    ,                         !- Minimum Surface Convection Heat Transfer Coefficient Value
    ;                         !- Maximum Surface Convection Heat Transfer Coefficient Value

TIMESTEP,
    1;                        !- Number of Timesteps per Hour

CONVERGENCELIMITS,
    1,                        !- Minimum System Timestep
    20,                       !- Maximum HVAC Iterations
    2,                        !- Minimum Plant Iterations
    8;                        !- Maximum Plant Iterations

RUNPERIOD,
    Run_Period_1,             !- Name
    1,                        !- Begin Month
    1,                        !- Begin Day of Month
    ,                         !- Begin Year
    12,                       !- End Month
    31,                       !- End Day of Month
    ,                         !- End Year
    ,                         !- Day of Week for Start Day
    Yes,                      !- Use Weather File Holidays and Special Days
    Yes,                      !- Use Weather File Daylight Saving Period
    No,                       !- Apply Weekend Holiday Rule
    Yes,                      !- Use Weather File Rain Indicators
    Yes,                      !- Use Weather File Snow Indicators
    ,                         !- Treat Weather as Actual
    ;                         !- First Hour Interpolation Starting Values

SCHEDULETYPELIMITS,
    Fraction,                 !- Name
    0,                        !- Lower Limit Value
    1,                        !- Upper Limit Value
    Continuous,               !- Numeric Type
    ;                         !- Unit Type

SCHEDULETYPELIMITS,
    Temperature,              !- Name
    ,                         !- Lower Limit Value
    ,                         !- Upper Limit Value
    Continuous,               !- Numeric Type
    Temperature;              !- Unit Type

SCHEDULETYPELIMITS,
    Any Number,               !- Name
    ,                         !- Lower Limit Value
    ,                         !- Upper Limit Value
    Continuous,               !- Numeric Type
    Dimensionless;            !- Unit Type

SCHEDULETYPELIMITS,
    On/Off,                   !- Name
    ,                         !- Lower Limit Value
    ,                         !- Upper Limit Value
    ,                         !- Numeric Type
    Dimensionless;            !- Unit Type

SCHEDULE:COMPACT,
    People_Schedule,          !- Name
    Fraction,                 !- Schedule Type Limits Name
    Through: 12/31,           !- Field 1
    For: Weekdays,            !- Field 2
    Until: 06:00,             !- Field 3
    0.98,                     !- Field 4
    Until: 07:00,             !- Field 5
    0.85,                     !- Field 6
    Until: 08:00,             !- Field 7
    0.65,                     !- Field 8
    Until: 17:00,             !- Field 9
    0.1,                      !- Field 10
    Until: 19:00,             !- Field 11
    0.75,                     !- Field 12
    Until: 22:00,             !- Field 13
    0.9,                      !- Field 14
    Until: 24:00,             !- Field 15
    0.95,                     !- Field 16
    For: AllOtherDays,        !- Field 17
    Until: 09:00,             !- Field 18
    0.95,                     !- Field 19
    Until: 18:00,             !- Field 20
    0.6,                      !- Field 21
    Until: 24:00,             !- Field 22
    0.9;                      !- Field 23

SCHEDULE:COMPACT,
    Lights_Schedule,          !- Name
    Fraction,                 !- Schedule Type Limits Name
    Through: 12/31,           !- Field 1
    For: AllDays,             !- Field 2
    Until: 19:00,             !- Field 3
    0,                        !- Field 4
    Until: 24:00,             !- Field 5
    1;                        !- Field 6

SCHEDULE:COMPACT,
    ElectricEquipment_Schedule,    !- Name
    Fraction,                 !- Schedule Type Limits Name
    Through: 12/31,           !- Field 1
    For: AllDays,             !- Field 2
    Until: 12:00,             !- Field 3
    0.23,                     !- Field 4
    Until: 14:00,             !- Field 5
    0.69,                     !- Field 6
    Until: 20:00,             !- Field 7
    0.23,                     !- Field 8
    Until: 24:00,             !- Field 9
    1;                        !- Field 10

SCHEDULE:COMPACT,
    Heating_SP_Schedule,      !- Name
    Temperature,              !- Schedule Type Limits Name
    Through: 12/31,           !- Field 1
    For: Weekdays,            !- Field 2
    Until: 07:00,             !- Field 3
    18,                       !- Field 4
    Until: 08:00,             !- Field 5
    12,                       !- Field 6
    Until: 19:00,             !- Field 7
    18,                       !- Field 8
    Until: 22:00,             !- Field 9
    18,                       !- Field 10
    Until: 24:00,             !- Field 11
    18,                       !- Field 12
    For: AllOtherDays,        !- Field 13
    Until: 24:00,             !- Field 14
    5;                        !- Field 15

SCHEDULE:COMPACT,
    Cooling_SP_Schedule,      !- Name
    Temperature,              !- Schedule Type Limits Name
    Through: 12/31,           !- Field 1
    For: Weekdays,            !- Field 2
    Until: 07:00,             !- Field 3
    28,                       !- Field 4
    Until: 08:00,             !- Field 5
    37,                       !- Field 6
    Until: 19:00,             !- Field 7
    37,                       !- Field 8
    Until: 24:00,             !- Field 9
    28,                       !- Field 10
    For: AllOtherDays,        !- Field 11
    Until: 24:00,             !- Field 12
    28;                       !- Field 13

SCHEDULE:COMPACT,
    Heating_Period_Schedule,    !- Name
    On/Off,                   !- Schedule Type Limits Name
    Through: 04/15,           !- Field 1
    For: AllDays,             !- Field 2
    Until: 24:00,             !- Field 3
    1,                        !- Field 4
    Through: 11/01,           !- Field 5
    For: AllDays,             !- Field 6
    Until: 24:00,             !- Field 7
    0,                        !- Field 8
    Through: 12/31,           !- Field 9
    For: AllDays,             !- Field 10
    Until: 24:00,             !- Field 11
    1;                        !- Field 12

SCHEDULE:COMPACT,
    Cooling_Period_Schedule,    !- Name
    On/Off,                   !- Schedule Type Limits Name
    Through: 04/15,           !- Field 1
    For: AllDays,             !- Field 2
    Until: 24:00,             !- Field 3
    0,                        !- Field 4
    Through: 10/31,           !- Field 5
    For: AllDays,             !- Field 6
    Until: 24:00,             !- Field 7
    1,                        !- Field 8
    Through: 12/31,           !- Field 9
    For: AllDays,             !- Field 10
    Until: 24:00,             !- Field 11
    0;                        !- Field 12

SCHEDULE:COMPACT,
    HVAC_ConditionedTime_Schedule,    !- Name
    On/Off,                   !- Schedule Type Limits Name
    Through: 12/31,           !- Field 1
    For: Weekdays,            !- Field 2
    Until: 07:00,             !- Field 3
    1,                        !- Field 4
    Until: 19:00,             !- Field 5
    0,                        !- Field 6
    Until: 24:00,             !- Field 7
    1,                        !- Field 8
    For: AllOtherDays,        !- Field 9
    Until: 24:00,             !- Field 10
    1;                        !- Field 11

SCHEDULE:COMPACT,
    AirEx_ConditionedTime_Schedule,    !- Name
    Any Number,               !- Schedule Type Limits Name
    Through: 12/31,           !- Field 1
    For: Weekdays,            !- Field 2
    Until: 08:00,             !- Field 3
    0.5,                      !- Field 4
    Until: 17:00,             !- Field 5
    0,                        !- Field 6
    Until: 24:00,             !- Field 7
    0.5,                      !- Field 8
    For: AllOtherDays,        !- Field 9
    Until: 24:00,             !- Field 10
    0.5;                      !- Field 11

SCHEDULE:COMPACT,
    CN_GenericActivityLevel,    !- Name
    Any Number,               !- Schedule Type Limits Name
    Through: 12/31,           !- Field 1
    For: Weekdays,            !- Field 2
    Until: 08:00,             !- Field 3
    80,                       !- Field 4
    Until: 18:00,             !- Field 5
    120,                      !- Field 6
    Until: 24:00,             !- Field 7
    80,                       !- Field 8
    For: AllOtherDays,        !- Field 9
    Until: 24:00,             !- Field 10
    80;                       !- Field 11

Material,
    Concrete,                 !- Name
    MediumRough,              !- Roughness
    0.1,                      !- Thickness
    1.7,                      !- Conductivity
    2240,                     !- Density
    900,                      !- Specific Heat
    0.9,                      !- Thermal Absorptance
    0.7,                      !- Solar Absorptance
    0.7;                      !- Visible Absorptance

Material,
    Brick,                    !- Name
    MediumRough,              !- Roughness
    0.1,                      !- Thickness
    0.72,                     !- Conductivity
    1920,                     !- Density
    840,                      !- Specific Heat
    0.9,                      !- Thermal Absorptance
    0.7,                      !- Solar Absorptance
    0.7;                      !- Visible Absorptance

Material,
    Tile,                     !- Name
    Smooth,                   !- Roughness
    0.02,                     !- Thickness
    1.3,                      !- Conductivity
    2200,                     !- Density
    900,                      !- Specific Heat
    0.9,                      !- Thermal Absorptance
    0.7,                      !- Solar Absorptance
    0.7;                      !- Visible Absorptance

Material,
    Gypsum,                   !- Name
    Smooth,                   !- Roughness
    0.015,                    !- Thickness
    0.16,                     !- Conductivity
    800,                      !- Density
    1090,                     !- Specific Heat
    0.9,                      !- Thermal Absorptance
    0.7,                      !- Solar Absorptance
    0.7;                      !- Visible Absorptance

Material,
    AsphaltFelt,              !- Name
    Smooth,                   !- Roughness
    0.01,                     !- Thickness
    0.2,                      !- Conductivity
    960,                      !- Density
    1000,                     !- Specific Heat
    0.9,                      !- Thermal Absorptance
    0.7,                      !- Solar Absorptance
    0.7;                      !- Visible Absorptance

MATERIAL,
    Insulation 0.003,         !- Name
    Rough,                    !- Roughness
    0.003,                    !- Thickness
    0.04,                     !- Conductivity
    40,                       !- Density
    1500,                     !- Specific Heat
    0.9,                      !- Thermal Absorptance
    0.7,                      !- Solar Absorptance
    0.7;                      !- Visible Absorptance

MATERIAL,
    Insulation 0.004,         !- Name
    Rough,                    !- Roughness
    0.004,                    !- Thickness
    0.04,                     !- Conductivity
    40,                       !- Density
    1500,                     !- Specific Heat
    0.9,                      !- Thermal Absorptance
    0.7,                      !- Solar Absorptance
    0.7;                      !- Visible Absorptance

MATERIAL,
    Insulation 0.007,         !- Name
    Rough,                    !- Roughness
    0.007,                    !- Thickness
    0.04,                     !- Conductivity
    40,                       !- Density
    1500,                     !- Specific Heat
    0.9,                      !- Thermal Absorptance
    0.7,                      !- Solar Absorptance
    0.7;                      !- Visible Absorptance

MATERIAL,
    Insulation 0.011,         !- Name
    Rough,                    !- Roughness
    0.011,                    !- Thickness
    0.04,                     !- Conductivity
    40,                       !- Density
    1500,                     !- Specific Heat
    0.9,                      !- Thermal Absorptance
    0.7,                      !- Solar Absorptance
    0.7;                      !- Visible Absorptance

MATERIAL,
    Insulation 0.012,         !- Name
    Rough,                    !- Roughness
    0.012,                    !- Thickness
    0.04,                     !- Conductivity
    40,                       !- Density
    1500,                     !- Specific Heat
    0.9,                      !- Thermal Absorptance
    0.7,                      !- Solar Absorptance
    0.7;                      !- Visible Absorptance

MATERIAL,
    Insulation 0.013,         !- Name
    Rough,                    !- Roughness
    0.013,                    !- Thickness
    0.04,                     !- Conductivity
    40,                       !- Density
    1500,                     !- Specific Heat
    0.9,                      !- Thermal Absorptance
    0.7,                      !- Solar Absorptance
    0.7;                      !- Visible Absorptance

MATERIAL,
    Insulation 0.014,         !- Name
    Rough,                    !- Roughness
    0.014,                    !- Thickness
    0.04,                     !- Conductivity
    40,                       !- Density
    1500,                     !- Specific Heat
    0.9,                      !- Thermal Absorptance
    0.7,                      !- Solar Absorptance
    0.7;                      !- Visible Absorptance

MATERIAL,
    Insulation 0.016,         !- Name
    Rough,                    !- Roughness
    0.016,                    !- Thickness
    0.04,                     !- Conductivity
    40,                       !- Density
    1500,                     !- Specific Heat
    0.9,                      !- Thermal Absorptance
    0.7,                      !- Solar Absorptance
    0.7;                      !- Visible Absorptance

MATERIAL,
    Insulation 0.017,         !- Name
    Rough,                    !- Roughness
    0.017,                    !- Thickness
    0.04,                     !- Conductivity
    40,                       !- Density
    1500,                     !- Specific Heat
    0.9,                      !- Thermal Absorptance
    0.7,                      !- Solar Absorptance
    0.7;                      !- Visible Absorptance

MATERIAL,
    Insulation 0.018,         !- Name
    Rough,                    !- Roughness
    0.018,                    !- Thickness
    0.04,                     !- Conductivity
    40,                       !- Density
    1500,                     !- Specific Heat
    0.9,                      !- Thermal Absorptance
    0.7,                      !- Solar Absorptance
    0.7;                      !- Visible Absorptance

MATERIAL,
    Insulation 0.021,         !- Name
    Rough,                    !- Roughness
    0.021,                    !- Thickness
    0.04,                     !- Conductivity
    40,                       !- Density
    1500,                     !- Specific Heat
    0.9,                      !- Thermal Absorptance
    0.7,                      !- Solar Absorptance
    0.7;                      !- Visible Absorptance

MATERIAL,
    Insulation 0.022,         !- Name
    Rough,                    !- Roughness
    0.022,                    !- Thickness
    0.04,                     !- Conductivity
    40,                       !- Density
    1500,                     !- Specific Heat
    0.9,                      !- Thermal Absorptance
    0.7,                      !- Solar Absorptance
    0.7;                      !- Visible Absorptance

MATERIAL,
    Insulation 0.024,         !- Name
    Rough,                    !- Roughness
    0.024,                    !- Thickness
    0.04,                     !- Conductivity
    40,                       !- Density
    1500,                     !- Specific Heat
    0.9,                      !- Thermal Absorptance
    0.7,                      !- Solar Absorptance
    0.7;                      !- Visible Absorptance

MATERIAL,
    Insulation 0.027,         !- Name
    Rough,                    !- Roughness
    0.027,                    !- Thickness
    0.04,                     !- Conductivity
    40,                       !- Density
    1500,                     !- Specific Heat
    0.9,                      !- Thermal Absorptance
    0.7,                      !- Solar Absorptance
    0.7;                      !- Visible Absorptance

MATERIAL,
    Insulation 0.028,         !- Name
    Rough,                    !- Roughness
    0.028,                    !- Thickness
    0.04,                     !- Conductivity
    40,                       !- Density
    1500,                     !- Specific Heat
    0.9,                      !- Thermal Absorptance
    0.7,                      !- Solar Absorptance
    0.7;                      !- Visible Absorptance

MATERIAL,
    Insulation 0.029,         !- Name
    Rough,                    !- Roughness
    0.029,                    !- Thickness
    0.04,                     !- Conductivity
    40,                       !- Density
    1500,                     !- Specific Heat
    0.9,                      !- Thermal Absorptance
    0.7,                      !- Solar Absorptance
    0.7;                      !- Visible Absorptance

MATERIAL,
    Insulation 0.032,         !- Name
    Rough,                    !- Roughness
    0.032,                    !- Thickness
    0.04,                     !- Conductivity
    40,                       !- Density
    1500,                     !- Specific Heat
    0.9,                      !- Thermal Absorptance
    0.7,                      !- Solar Absorptance
    0.7;                      !- Visible Absorptance

MATERIAL,
    Insulation 0.036,         !- Name
    Rough,                    !- Roughness
    0.036,                    !- Thickness
    0.04,                     !- Conductivity
    40,                       !- Density
    1500,                     !- Specific Heat
    0.9,                      !- Thermal Absorptance
    0.7,                      !- Solar Absorptance
    0.7;                      !- Visible Absorptance

MATERIAL,
    Insulation 0.038,         !- Name
    Rough,                    !- Roughness
    0.038,                    !- Thickness
    0.04,                     !- Conductivity
    40,                       !- Density
    1500,                     !- Specific Heat
    0.9,                      !- Thermal Absorptance
    0.7,                      !- Solar Absorptance
    0.7;                      !- Visible Absorptance

MATERIAL,
    Insulation 0.040,         !- Name
    Rough,                    !- Roughness
    0.04,                     !- Thickness
    0.04,                     !- Conductivity
    40,                       !- Density
    1500,                     !- Specific Heat
    0.9,                      !- Thermal Absorptance
    0.7,                      !- Solar Absorptance
    0.7;                      !- Visible Absorptance

MATERIAL,
    Insulation 0.043,         !- Name
    Rough,                    !- Roughness
    0.043,                    !- Thickness
    0.04,                     !- Conductivity
    40,                       !- Density
    1500,                     !- Specific Heat
    0.9,                      !- Thermal Absorptance
    0.7,                      !- Solar Absorptance
    0.7;                      !- Visible Absorptance

MATERIAL,
    Insulation 0.046,         !- Name
    Rough,                    !- Roughness
    0.046,                    !- Thickness
    0.04,                     !- Conductivity
    40,                       !- Density
    1500,                     !- Specific Heat
    0.9,                      !- Thermal Absorptance
    0.7,                      !- Solar Absorptance
    0.7;                      !- Visible Absorptance

MATERIAL,
    Insulation 0.048,         !- Name
    Rough,                    !- Roughness
    0.048,                    !- Thickness
    0.04,                     !- Conductivity
    40,                       !- Density
    1500,                     !- Specific Heat
    0.9,                      !- Thermal Absorptance
    0.7,                      !- Solar Absorptance
    0.7;                      !- Visible Absorptance

MATERIAL,
    Insulation 0.057,         !- Name
    Rough,                    !- Roughness
    0.057,                    !- Thickness
    0.04,                     !- Conductivity
    40,                       !- Density
    1500,                     !- Specific Heat
    0.9,                      !- Thermal Absorptance
    0.7,                      !- Solar Absorptance
    0.7;                      !- Visible Absorptance

MATERIAL,
    Insulation 0.069,         !- Name
    Rough,                    !- Roughness
    0.069,                    !- Thickness
    0.04,                     !- Conductivity
    40,                       !- Density
    1500,                     !- Specific Heat
    0.9,                      !- Thermal Absorptance
    0.7,                      !- Solar Absorptance
    0.7;                      !- Visible Absorptance

MATERIAL,
    Insulation 0.077,         !- Name
    Rough,                    !- Roughness
    0.077,                    !- Thickness
    0.04,                     !- Conductivity
    40,                       !- Density
    1500,                     !- Specific Heat
    0.9,                      !- Thermal Absorptance
    0.7,                      !- Solar Absorptance
    0.7;                      !- Visible Absorptance

MATERIAL,
    Insulation 0.095,         !- Name
    Rough,                    !- Roughness
    0.095,                    !- Thickness
    0.04,                     !- Conductivity
    40,                       !- Density
    1500,                     !- Specific Heat
    0.9,                      !- Thermal Absorptance
    0.7,                      !- Solar Absorptance
    0.7;                      !- Visible Absorptance

MATERIAL,
    Insulation 0.049,         !- Name
    Rough,                    !- Roughness
    0.049,                    !- Thickness
    0.04,                     !- Conductivity
    40,                       !- Density
    1500,                     !- Specific Heat
    0.9,                      !- Thermal Absorptance
    0.7,                      !- Solar Absorptance
    0.7;                      !- Visible Absorptance

MATERIAL,
    Insulation 0.13,          !- Name
    Rough,                    !- Roughness
    0.13,                     !- Thickness
    0.04,                     !- Conductivity
    40,                       !- Density
    1500,                     !- Specific Heat
    0.9,                      !- Thermal Absorptance
    0.7,                      !- Solar Absorptance
    0.7;                      !- Visible Absorptance

MATERIAL,
    Insulation 0.16,          !- Name
    Rough,                    !- Roughness
    0.16,                     !- Thickness
    0.04,                     !- Conductivity
    40,                       !- Density
    1500,                     !- Specific Heat
    0.9,                      !- Thermal Absorptance
    0.7,                      !- Solar Absorptance
    0.7;                      !- Visible Absorptance

MATERIAL,
    Insulation 0.039,         !- Name
    Rough,                    !- Roughness
    0.039,                    !- Thickness
    0.04,                     !- Conductivity
    40,                       !- Density
    1500,                     !- Specific Heat
    0.9,                      !- Thermal Absorptance
    0.7,                      !- Solar Absorptance
    0.7;                      !- Visible Absorptance

MATERIAL,
    Insulation 0.081,         !- Name
    Rough,                    !- Roughness
    0.081,                    !- Thickness
    0.04,                     !- Conductivity
    40,                       !- Density
    1500,                     !- Specific Heat
    0.9,                      !- Thermal Absorptance
    0.7,                      !- Solar Absorptance
    0.7;                      !- Visible Absorptance

MATERIAL,
    Insulation 0.11,          !- Name
    Rough,                    !- Roughness
    0.11,                     !- Thickness
    0.04,                     !- Conductivity
    40,                       !- Density
    1500,                     !- Specific Heat
    0.9,                      !- Thermal Absorptance
    0.7,                      !- Solar Absorptance
    0.7;                      !- Visible Absorptance

MATERIAL,
    Insulation 0.01,          !- Name
    Rough,                    !- Roughness
    0.01,                     !- Thickness
    0.04,                     !- Conductivity
    40,                       !- Density
    1500,                     !- Specific Heat
    0.9,                      !- Thermal Absorptance
    0.7,                      !- Solar Absorptance
    0.7;                      !- Visible Absorptance

MATERIAL,
    Insulation 0.034,         !- Name
    Rough,                    !- Roughness
    0.034,                    !- Thickness
    0.04,                     !- Conductivity
    40,                       !- Density
    1500,                     !- Specific Heat
    0.9,                      !- Thermal Absorptance
    0.7,                      !- Solar Absorptance
    0.7;                      !- Visible Absorptance

MATERIAL,
    Insulation 0.044,         !- Name
    Rough,                    !- Roughness
    0.044,                    !- Thickness
    0.04,                     !- Conductivity
    40,                       !- Density
    1500,                     !- Specific Heat
    0.9,                      !- Thermal Absorptance
    0.7,                      !- Solar Absorptance
    0.7;                      !- Visible Absorptance

MATERIAL,
    Insulation 0.051,         !- Name
    Rough,                    !- Roughness
    0.051,                    !- Thickness
    0.04,                     !- Conductivity
    40,                       !- Density
    1500,                     !- Specific Heat
    0.9,                      !- Thermal Absorptance
    0.7,                      !- Solar Absorptance
    0.7;                      !- Visible Absorptance

MATERIAL,
    Insulation 0.074,         !- Name
    Rough,                    !- Roughness
    0.074,                    !- Thickness
    0.04,                     !- Conductivity
    40,                       !- Density
    1500,                     !- Specific Heat
    0.9,                      !- Thermal Absorptance
    0.7,                      !- Solar Absorptance
    0.7;                      !- Visible Absorptance

MATERIAL,
    Insulation 0.05,          !- Name
    Rough,                    !- Roughness
    0.05,                     !- Thickness
    0.04,                     !- Conductivity
    40,                       !- Density
    1500,                     !- Specific Heat
    0.9,                      !- Thermal Absorptance
    0.7,                      !- Solar Absorptance
    0.7;                      !- Visible Absorptance

MATERIAL,
    Insulation 0.082,         !- Name
    Rough,                    !- Roughness
    0.082,                    !- Thickness
    0.04,                     !- Conductivity
    40,                       !- Density
    1500,                     !- Specific Heat
    0.9,                      !- Thermal Absorptance
    0.7,                      !- Solar Absorptance
    0.7;                      !- Visible Absorptance

MATERIAL,
    Insulation 0.096,         !- Name
    Rough,                    !- Roughness
    0.096,                    !- Thickness
    0.04,                     !- Conductivity
    40,                       !- Density
    1500,                     !- Specific Heat
    0.9,                      !- Thermal Absorptance
    0.7,                      !- Solar Absorptance
    0.7;                      !- Visible Absorptance

MATERIAL,
    Insulation 0.059,         !- Name
    Rough,                    !- Roughness
    0.059,                    !- Thickness
    0.04,                     !- Conductivity
    40,                       !- Density
    1500,                     !- Specific Heat
    0.9,                      !- Thermal Absorptance
    0.7,                      !- Solar Absorptance
    0.7;                      !- Visible Absorptance

MATERIAL,
    Insulation 0.0078,        !- Name
    Rough,                    !- Roughness
    0.008,                    !- Thickness
    0.04,                     !- Conductivity
    40,                       !- Density
    1500,                     !- Specific Heat
    0.9,                      !- Thermal Absorptance
    0.7,                      !- Solar Absorptance
    0.7;                      !- Visible Absorptance

MATERIAL,
    Insulation 0.061,         !- Name
    Rough,                    !- Roughness
    0.061,                    !- Thickness
    0.04,                     !- Conductivity
    40,                       !- Density
    1500,                     !- Specific Heat
    0.9,                      !- Thermal Absorptance
    0.7,                      !- Solar Absorptance
    0.7;                      !- Visible Absorptance

MATERIAL,
    Insulation 0.04,          !- Name
    Rough,                    !- Roughness
    0.04,                     !- Thickness
    0.04,                     !- Conductivity
    40,                       !- Density
    1500,                     !- Specific Heat
    0.9,                      !- Thermal Absorptance
    0.7,                      !- Solar Absorptance
    0.7;                      !- Visible Absorptance

MATERIAL,
    Insulation 0.073,         !- Name
    Rough,                    !- Roughness
    0.073,                    !- Thickness
    0.04,                     !- Conductivity
    40,                       !- Density
    1500,                     !- Specific Heat
    0.9,                      !- Thermal Absorptance
    0.7,                      !- Solar Absorptance
    0.7;                      !- Visible Absorptance

MATERIAL,
    Insulation 0.053,         !- Name
    Rough,                    !- Roughness
    0.053,                    !- Thickness
    0.04,                     !- Conductivity
    40,                       !- Density
    1500,                     !- Specific Heat
    0.9,                      !- Thermal Absorptance
    0.7,                      !- Solar Absorptance
    0.7;                      !- Visible Absorptance

MATERIAL,
    Insulation 0.068,         !- Name
    Rough,                    !- Roughness
    0.068,                    !- Thickness
    0.04,                     !- Conductivity
    40,                       !- Density
    1500,                     !- Specific Heat
    0.9,                      !- Thermal Absorptance
    0.7,                      !- Solar Absorptance
    0.7;                      !- Visible Absorptance

MATERIAL,
    Insulation 0.0059,        !- Name
    Rough,                    !- Roughness
    0.006,                    !- Thickness
    0.04,                     !- Conductivity
    40,                       !- Density
    1500,                     !- Specific Heat
    0.9,                      !- Thermal Absorptance
    0.7,                      !- Solar Absorptance
    0.7;                      !- Visible Absorptance

MATERIAL,
    Insulation 0.033,         !- Name
    Rough,                    !- Roughness
    0.033,                    !- Thickness
    0.04,                     !- Conductivity
    40,                       !- Density
    1500,                     !- Specific Heat
    0.9,                      !- Thermal Absorptance
    0.7,                      !- Solar Absorptance
    0.7;                      !- Visible Absorptance

MATERIAL,
    Insulation 0.0081,        !- Name
    Rough,                    !- Roughness
    0.008,                    !- Thickness
    0.04,                     !- Conductivity
    40,                       !- Density
    1500,                     !- Specific Heat
    0.9,                      !- Thermal Absorptance
    0.7,                      !- Solar Absorptance
    0.7;                      !- Visible Absorptance

MATERIAL,
    Insulation 0.019,         !- Name
    Rough,                    !- Roughness
    0.019,                    !- Thickness
    0.04,                     !- Conductivity
    40,                       !- Density
    1500,                     !- Specific Heat
    0.9,                      !- Thermal Absorptance
    0.7,                      !- Solar Absorptance
    0.7;                      !- Visible Absorptance

MATERIAL,
    Insulation 0.0044,        !- Name
    Rough,                    !- Roughness
    0.004,                    !- Thickness
    0.04,                     !- Conductivity
    40,                       !- Density
    1500,                     !- Specific Heat
    0.9,                      !- Thermal Absorptance
    0.7,                      !- Solar Absorptance
    0.7;                      !- Visible Absorptance

MATERIAL,
    Insulation 0.025,         !- Name
    Rough,                    !- Roughness
    0.025,                    !- Thickness
    0.04,                     !- Conductivity
    40,                       !- Density
    1500,                     !- Specific Heat
    0.9,                      !- Thermal Absorptance
    0.7,                      !- Solar Absorptance
    0.7;                      !- Visible Absorptance

WindowMaterial:SimpleGlazingSystem,
    SCZ1_Residential_1980_Win_material,    !- Name
    3.3,                      !- UFactor
    0.75;                     !- Solar Heat Gain Coefficient

WindowMaterial:SimpleGlazingSystem,
    SCZ1_Residential_1995_Win_material,    !- Name
    2.25,                     !- UFactor
    0.55;                     !- Solar Heat Gain Coefficient

WindowMaterial:SimpleGlazingSystem,
    SCZ1_Residential_2005_Win_material,    !- Name
    2.2,                      !- UFactor
    0.5;                      !- Solar Heat Gain Coefficient

WindowMaterial:SimpleGlazingSystem,
    SCZ1_Residential_2015_Win_material,    !- Name
    1.6,                      !- UFactor
    0.4;                      !- Solar Heat Gain Coefficient

WindowMaterial:SimpleGlazingSystem,
    SCZ2_Residential_1980_Win_material,    !- Name
    6.5,                      !- UFactor
    0.78;                     !- Solar Heat Gain Coefficient

WindowMaterial:SimpleGlazingSystem,
    SCZ2_Residential_1995_Win_material,    !- Name
    3.5,                      !- UFactor
    0.6;                      !- Solar Heat Gain Coefficient

WindowMaterial:SimpleGlazingSystem,
    SCZ2_Residential_2005_Win_material,    !- Name
    2.2,                      !- UFactor
    0.55;                     !- Solar Heat Gain Coefficient

WindowMaterial:SimpleGlazingSystem,
    SCZ2_Residential_2015_Win_material,    !- Name
    2,                        !- UFactor
    0.45;                     !- Solar Heat Gain Coefficient

WindowMaterial:SimpleGlazingSystem,
    CZ_Residential_1980_Win_material,    !- Name
    6.075,                    !- UFactor
    0.81;                     !- Solar Heat Gain Coefficient

WindowMaterial:SimpleGlazingSystem,
    CZ_Residential_1995_Win_material,    !- Name
    4.725,                    !- UFactor
    0.6875;                   !- Solar Heat Gain Coefficient

WindowMaterial:SimpleGlazingSystem,
    CZ_Residential_2005_Win_material,    !- Name
    3.7,                      !- UFactor
    0.5475;                   !- Solar Heat Gain Coefficient

WindowMaterial:SimpleGlazingSystem,
    CZ_Residential_2015_Win_material,    !- Name
    2.475,                    !- UFactor
    0.40249999999999997;      !- Solar Heat Gain Coefficient

WindowMaterial:SimpleGlazingSystem,
    HSCWZ_Residential_1980_Win_material,    !- Name
    6.075,                    !- UFactor
    0.81;                     !- Solar Heat Gain Coefficient

WindowMaterial:SimpleGlazingSystem,
    HSCWZ_Residential_1995_Win_material,    !- Name
    4.725,                    !- UFactor
    0.6875;                   !- Solar Heat Gain Coefficient

WindowMaterial:SimpleGlazingSystem,
    HSCWZ_Residential_2005_Win_material,    !- Name
    3.7,                      !- UFactor
    0.5475;                   !- Solar Heat Gain Coefficient

WindowMaterial:SimpleGlazingSystem,
    HSCWZ_Residential_2015_Win_material,    !- Name
    2.475,                    !- UFactor
    0.40249999999999997;      !- Solar Heat Gain Coefficient

WindowMaterial:SimpleGlazingSystem,
    HSWWZ_Residential_1980_Win_material,    !- Name
    6.075,                    !- UFactor
    0.81;                     !- Solar Heat Gain Coefficient

WindowMaterial:SimpleGlazingSystem,
    HSWWZ_Residential_1995_Win_material,    !- Name
    4.725,                    !- UFactor
    0.6875;                   !- Solar Heat Gain Coefficient

WindowMaterial:SimpleGlazingSystem,
    HSWWZ_Residential_2005_Win_material,    !- Name
    3.7,                      !- UFactor
    0.5475;                   !- Solar Heat Gain Coefficient

WindowMaterial:SimpleGlazingSystem,
    HSWWZ_Residential_2015_Win_material,    !- Name
    2.475,                    !- UFactor
    0.40249999999999997;      !- Solar Heat Gain Coefficient

WindowMaterial:SimpleGlazingSystem,
    TZ_Residential_1980_Win_material,    !- Name
    6.075,                    !- UFactor
    0.81;                     !- Solar Heat Gain Coefficient

WindowMaterial:SimpleGlazingSystem,
    TZ_Residential_1995_Win_material,    !- Name
    4.725,                    !- UFactor
    0.6875;                   !- Solar Heat Gain Coefficient

WindowMaterial:SimpleGlazingSystem,
    TZ_Residential_2005_Win_material,    !- Name
    3.7,                      !- UFactor
    0.5475;                   !- Solar Heat Gain Coefficient

WindowMaterial:SimpleGlazingSystem,
    TZ_Residential_2015_Win_material,    !- Name
    2.475,                    !- UFactor
    0.40249999999999997;      !- Solar Heat Gain Coefficient

Construction,
    SCZ1_Residential_1980_FloorSlab,    !- Name
    Tile,                     !- Outside Layer
    Concrete,                 !- Layer 2
    Insulation 0.027,         !- Layer 3
    Concrete,                 !- Layer 4
    Tile;                     !- Layer 5

Construction,
    SCZ1_Residential_1995_FloorSlab,    !- Name
    Tile,                     !- Outside Layer
    Concrete,                 !- Layer 2
    Insulation 0.051,         !- Layer 3
    Concrete,                 !- Layer 4
    Tile;                     !- Layer 5

Construction,
    SCZ1_Residential_2005_FloorSlab,    !- Name
    Tile,                     !- Outside Layer
    Concrete,                 !- Layer 2
    Insulation 0.051,         !- Layer 3
    Concrete,                 !- Layer 4
    Tile;                     !- Layer 5

Construction,
    SCZ1_Residential_2015_FloorSlab,    !- Name
    Tile,                     !- Outside Layer
    Concrete,                 !- Layer 2
    Insulation 0.074,         !- Layer 3
    Concrete,                 !- Layer 4
    Tile;                     !- Layer 5

Construction,
    SCZ1_Residential_1980_FloorGround,    !- Name
    Tile,                     !- Outside Layer
    Concrete,                 !- Layer 2
    Gypsum,                   !- Layer 3
    Insulation 0.05;          !- Layer 4

Construction,
    SCZ1_Residential_1995_FloorGround,    !- Name
    Tile,                     !- Outside Layer
    Concrete,                 !- Layer 2
    Gypsum,                   !- Layer 3
    Insulation 0.082;         !- Layer 4

Construction,
    SCZ1_Residential_2005_FloorGround,    !- Name
    Tile,                     !- Outside Layer
    Concrete,                 !- Layer 2
    Gypsum,                   !- Layer 3
    Insulation 0.082;         !- Layer 4

Construction,
    SCZ1_Residential_2015_FloorGround,    !- Name
    Tile,                     !- Outside Layer
    Concrete,                 !- Layer 2
    Gypsum,                   !- Layer 3
    Insulation 0.082;         !- Layer 4

Construction,
    SCZ1_Residential_1980_Win,    !- Name
    SCZ1_Residential_1980_Win_material;    !- Outside Layer

Construction,
    SCZ1_Residential_1995_Win,    !- Name
    SCZ1_Residential_1995_Win_material;    !- Outside Layer

Construction,
    SCZ1_Residential_2005_Win,    !- Name
    SCZ1_Residential_2005_Win_material;    !- Outside Layer

Construction,
    SCZ1_Residential_2015_Win,    !- Name
    SCZ1_Residential_2015_Win_material;    !- Outside Layer

Construction,
    SCZ2_Residential_1980_FloorSlab,    !- Name
    Tile,                     !- Outside Layer
    Concrete,                 !- Layer 2
    Insulation 0.027,         !- Layer 3
    Concrete,                 !- Layer 4
    Tile;                     !- Layer 5

Construction,
    SCZ2_Residential_1995_FloorSlab,    !- Name
    Tile,                     !- Outside Layer
    Concrete,                 !- Layer 2
    Insulation 0.051,         !- Layer 3
    Concrete,                 !- Layer 4
    Tile;                     !- Layer 5

Construction,
    SCZ2_Residential_2005_FloorSlab,    !- Name
    Tile,                     !- Outside Layer
    Concrete,                 !- Layer 2
    Insulation 0.051,         !- Layer 3
    Concrete,                 !- Layer 4
    Tile;                     !- Layer 5

Construction,
    SCZ2_Residential_2015_FloorSlab,    !- Name
    Tile,                     !- Outside Layer
    Concrete,                 !- Layer 2
    Insulation 0.074,         !- Layer 3
    Concrete,                 !- Layer 4
    Tile;                     !- Layer 5

Construction,
    SCZ2_Residential_1980_FloorGround,    !- Name
    Tile,                     !- Outside Layer
    Concrete,                 !- Layer 2
    Gypsum,                   !- Layer 3
    Insulation 0.05;          !- Layer 4

Construction,
    SCZ2_Residential_1995_FloorGround,    !- Name
    Tile,                     !- Outside Layer
    Concrete,                 !- Layer 2
    Gypsum,                   !- Layer 3
    Insulation 0.082;         !- Layer 4

Construction,
    SCZ2_Residential_2005_FloorGround,    !- Name
    Tile,                     !- Outside Layer
    Concrete,                 !- Layer 2
    Gypsum,                   !- Layer 3
    Insulation 0.082;         !- Layer 4

Construction,
    SCZ2_Residential_2015_FloorGround,    !- Name
    Tile,                     !- Outside Layer
    Concrete,                 !- Layer 2
    Gypsum,                   !- Layer 3
    Insulation 0.082;         !- Layer 4

Construction,
    SCZ2_Residential_1980_Win,    !- Name
    SCZ2_Residential_1980_Win_material;    !- Outside Layer

Construction,
    SCZ2_Residential_1995_Win,    !- Name
    SCZ2_Residential_1995_Win_material;    !- Outside Layer

Construction,
    SCZ2_Residential_2005_Win,    !- Name
    SCZ2_Residential_2005_Win_material;    !- Outside Layer

Construction,
    SCZ2_Residential_2015_Win,    !- Name
    SCZ2_Residential_2015_Win_material;    !- Outside Layer

Construction,
    CZ_Residential_1980_FloorSlab,    !- Name
    Tile,                     !- Outside Layer
    Concrete,                 !- Layer 2
    Insulation 0.021,         !- Layer 3
    Concrete,                 !- Layer 4
    Tile;                     !- Layer 5

Construction,
    CZ_Residential_1995_FloorSlab,    !- Name
    Tile,                     !- Outside Layer
    Concrete,                 !- Layer 2
    Insulation 0.051,         !- Layer 3
    Concrete,                 !- Layer 4
    Tile;                     !- Layer 5

Construction,
    CZ_Residential_2005_FloorSlab,    !- Name
    Tile,                     !- Outside Layer
    Concrete,                 !- Layer 2
    Insulation 0.051,         !- Layer 3
    Concrete,                 !- Layer 4
    Tile;                     !- Layer 5

Construction,
    CZ_Residential_2015_FloorSlab,    !- Name
    Tile,                     !- Outside Layer
    Concrete,                 !- Layer 2
    Insulation 0.061,         !- Layer 3
    Concrete,                 !- Layer 4
    Tile;                     !- Layer 5

Construction,
    CZ_Residential_1980_FloorGround,    !- Name
    Tile,                     !- Outside Layer
    Concrete,                 !- Layer 2
    Gypsum,                   !- Layer 3
    Insulation 0.04;          !- Layer 4

Construction,
    CZ_Residential_1995_FloorGround,    !- Name
    Tile,                     !- Outside Layer
    Concrete,                 !- Layer 2
    Gypsum,                   !- Layer 3
    Insulation 0.073;         !- Layer 4

Construction,
    CZ_Residential_2005_FloorGround,    !- Name
    Tile,                     !- Outside Layer
    Concrete,                 !- Layer 2
    Gypsum,                   !- Layer 3
    Insulation 0.073;         !- Layer 4

Construction,
    CZ_Residential_2015_FloorGround,    !- Name
    Tile,                     !- Outside Layer
    Concrete,                 !- Layer 2
    Gypsum,                   !- Layer 3
    Insulation 0.073;         !- Layer 4

Construction,
    CZ_Residential_1980_Win,    !- Name
    CZ_Residential_1980_Win_material;    !- Outside Layer

Construction,
    CZ_Residential_1995_Win,    !- Name
    CZ_Residential_1995_Win_material;    !- Outside Layer

Construction,
    CZ_Residential_2005_Win,    !- Name
    CZ_Residential_2005_Win_material;    !- Outside Layer

Construction,
    CZ_Residential_2015_Win,    !- Name
    CZ_Residential_2015_Win_material;    !- Outside Layer

Construction,
    HSCWZ_Residential_1980_FloorSlab,    !- Name
    Tile,                     !- Outside Layer
    Concrete,                 !- Layer 2
    Insulation 0.014,         !- Layer 3
    Concrete,                 !- Layer 4
    Tile;                     !- Layer 5

Construction,
    HSCWZ_Residential_1995_FloorSlab,    !- Name
    Tile,                     !- Outside Layer
    Concrete,                 !- Layer 2
    Insulation 0.044,         !- Layer 3
    Concrete,                 !- Layer 4
    Tile;                     !- Layer 5

Construction,
    HSCWZ_Residential_2005_FloorSlab,    !- Name
    Tile,                     !- Outside Layer
    Concrete,                 !- Layer 2
    Insulation 0.044,         !- Layer 3
    Concrete,                 !- Layer 4
    Tile;                     !- Layer 5

Construction,
    HSCWZ_Residential_2015_FloorSlab,    !- Name
    Tile,                     !- Outside Layer
    Concrete,                 !- Layer 2
    Insulation 0.044,         !- Layer 3
    Concrete,                 !- Layer 4
    Tile;                     !- Layer 5

Construction,
    HSCWZ_Residential_1980_FloorGround,    !- Name
    Tile,                     !- Outside Layer
    Concrete,                 !- Layer 2
    Gypsum,                   !- Layer 3
    Insulation 0.033;         !- Layer 4

Construction,
    HSCWZ_Residential_1995_FloorGround,    !- Name
    Tile,                     !- Outside Layer
    Concrete,                 !- Layer 2
    Gypsum,                   !- Layer 3
    Insulation 0.05;          !- Layer 4

Construction,
    HSCWZ_Residential_2005_FloorGround,    !- Name
    Tile,                     !- Outside Layer
    Concrete,                 !- Layer 2
    Gypsum,                   !- Layer 3
    Insulation 0.05;          !- Layer 4

Construction,
    HSCWZ_Residential_2015_FloorGround,    !- Name
    Tile,                     !- Outside Layer
    Concrete,                 !- Layer 2
    Gypsum,                   !- Layer 3
    Insulation 0.05;          !- Layer 4

Construction,
    HSCWZ_Residential_1980_Win,    !- Name
    HSCWZ_Residential_1980_Win_material;    !- Outside Layer

Construction,
    HSCWZ_Residential_1995_Win,    !- Name
    HSCWZ_Residential_1995_Win_material;    !- Outside Layer

Construction,
    HSCWZ_Residential_2005_Win,    !- Name
    HSCWZ_Residential_2005_Win_material;    !- Outside Layer

Construction,
    HSCWZ_Residential_2015_Win,    !- Name
    HSCWZ_Residential_2015_Win_material;    !- Outside Layer

Construction,
    HSWWZ_Residential_1980_FloorSlab,    !- Name
    Tile,                     !- Outside Layer
    Concrete,                 !- Layer 2
    Insulation 0.01,          !- Layer 3
    Concrete,                 !- Layer 4
    Tile;                     !- Layer 5

Construction,
    HSWWZ_Residential_1995_FloorSlab,    !- Name
    Tile,                     !- Outside Layer
    Concrete,                 !- Layer 2
    Insulation 0.034,         !- Layer 3
    Concrete,                 !- Layer 4
    Tile;                     !- Layer 5

Construction,
    HSWWZ_Residential_2005_FloorSlab,    !- Name
    Tile,                     !- Outside Layer
    Concrete,                 !- Layer 2
    Insulation 0.034,         !- Layer 3
    Concrete,                 !- Layer 4
    Tile;                     !- Layer 5

Construction,
    HSWWZ_Residential_2015_FloorSlab,    !- Name
    Tile,                     !- Outside Layer
    Concrete,                 !- Layer 2
    Insulation 0.034,         !- Layer 3
    Concrete,                 !- Layer 4
    Tile;                     !- Layer 5

Construction,
    HSWWZ_Residential_1980_FloorGround,    !- Name
    Tile,                     !- Outside Layer
    Concrete,                 !- Layer 2
    Gypsum,                   !- Layer 3
    Insulation 0.027;         !- Layer 4

Construction,
    HSWWZ_Residential_1995_FloorGround,    !- Name
    Tile,                     !- Outside Layer
    Concrete,                 !- Layer 2
    Gypsum,                   !- Layer 3
    Insulation 0.043;         !- Layer 4

Construction,
    HSWWZ_Residential_2005_FloorGround,    !- Name
    Tile,                     !- Outside Layer
    Concrete,                 !- Layer 2
    Gypsum,                   !- Layer 3
    Insulation 0.043;         !- Layer 4

Construction,
    HSWWZ_Residential_2015_FloorGround,    !- Name
    Tile,                     !- Outside Layer
    Concrete,                 !- Layer 2
    Gypsum,                   !- Layer 3
    Insulation 0.043;         !- Layer 4

Construction,
    HSWWZ_Residential_1980_Win,    !- Name
    HSWWZ_Residential_1980_Win_material;    !- Outside Layer

Construction,
    HSWWZ_Residential_1995_Win,    !- Name
    HSWWZ_Residential_1995_Win_material;    !- Outside Layer

Construction,
    HSWWZ_Residential_2005_Win,    !- Name
    HSWWZ_Residential_2005_Win_material;    !- Outside Layer

Construction,
    HSWWZ_Residential_2015_Win,    !- Name
    HSWWZ_Residential_2015_Win_material;    !- Outside Layer

Construction,
    TZ_Residential_1980_FloorSlab,    !- Name
    Tile,                     !- Outside Layer
    Concrete,                 !- Layer 2
    Insulation 0.01,          !- Layer 3
    Concrete,                 !- Layer 4
    Tile;                     !- Layer 5

Construction,
    TZ_Residential_1995_FloorSlab,    !- Name
    Tile,                     !- Outside Layer
    Concrete,                 !- Layer 2
    Insulation 0.021,         !- Layer 3
    Concrete,                 !- Layer 4
    Tile;                     !- Layer 5

Construction,
    TZ_Residential_2005_FloorSlab,    !- Name
    Tile,                     !- Outside Layer
    Concrete,                 !- Layer 2
    Insulation 0.021,         !- Layer 3
    Concrete,                 !- Layer 4
    Tile;                     !- Layer 5

Construction,
    TZ_Residential_2015_FloorSlab,    !- Name
    Tile,                     !- Outside Layer
    Concrete,                 !- Layer 2
    Insulation 0.021,         !- Layer 3
    Concrete,                 !- Layer 4
    Tile;                     !- Layer 5

Construction,
    TZ_Residential_1980_FloorGround,    !- Name
    Tile,                     !- Outside Layer
    Concrete,                 !- Layer 2
    Gypsum,                   !- Layer 3
    Insulation 0.027;         !- Layer 4

Construction,
    TZ_Residential_1995_FloorGround,    !- Name
    Tile,                     !- Outside Layer
    Concrete,                 !- Layer 2
    Gypsum,                   !- Layer 3
    Insulation 0.033;         !- Layer 4

Construction,
    TZ_Residential_2005_FloorGround,    !- Name
    Tile,                     !- Outside Layer
    Concrete,                 !- Layer 2
    Gypsum,                   !- Layer 3
    Insulation 0.033;         !- Layer 4

Construction,
    TZ_Residential_2015_FloorGround,    !- Name
    Tile,                     !- Outside Layer
    Concrete,                 !- Layer 2
    Gypsum,                   !- Layer 3
    Insulation 0.033;         !- Layer 4

Construction,
    TZ_Residential_1980_Win,    !- Name
    TZ_Residential_1980_Win_material;    !- Outside Layer

Construction,
    TZ_Residential_1995_Win,    !- Name
    TZ_Residential_1995_Win_material;    !- Outside Layer

Construction,
    TZ_Residential_2005_Win,    !- Name
    TZ_Residential_2005_Win_material;    !- Outside Layer

Construction,
    TZ_Residential_2015_Win,    !- Name
    TZ_Residential_2015_Win_material;    !- Outside Layer

CONSTRUCTION,
    SCZ1_Residential_1980_Roof,    !- Name
    AsphaltFelt,              !- Outside Layer
    Concrete,                 !- Layer 2
    Insulation 0.043;         !- Layer 3

CONSTRUCTION,
    SCZ1_Residential_1995_Roof,    !- Name
    AsphaltFelt,              !- Outside Layer
    Concrete,                 !- Layer 2
    Insulation 0.043;         !- Layer 3

CONSTRUCTION,
    SCZ1_Residential_2005_Roof,    !- Name
    AsphaltFelt,              !- Outside Layer
    Concrete,                 !- Layer 2
    Insulation 0.043;         !- Layer 3

CONSTRUCTION,
    SCZ1_Residential_2015_Roof,    !- Name
    AsphaltFelt,              !- Outside Layer
    Concrete,                 !- Layer 2
    Insulation 0.043;         !- Layer 3

CONSTRUCTION,
    SCZ1_Residential_1980_ExtWall,    !- Name
    Brick,                    !- Outside Layer
    Concrete,                 !- Layer 2
    Insulation 0.016;         !- Layer 3

CONSTRUCTION,
    SCZ1_Residential_1995_ExtWall,    !- Name
    Brick,                    !- Outside Layer
    Concrete,                 !- Layer 2
    Insulation 0.016;         !- Layer 3

CONSTRUCTION,
    SCZ1_Residential_2005_ExtWall,    !- Name
    Brick,                    !- Outside Layer
    Concrete,                 !- Layer 2
    Insulation 0.016;         !- Layer 3

CONSTRUCTION,
    SCZ1_Residential_2015_ExtWall,    !- Name
    Brick,                    !- Outside Layer
    Concrete,                 !- Layer 2
    Insulation 0.016;         !- Layer 3

CONSTRUCTION,
    SCZ1_Residential_1980_IntWall,    !- Name
    Brick,                    !- Outside Layer
    Brick;                    !- Layer 2

CONSTRUCTION,
    SCZ1_Residential_1995_IntWall,    !- Name
    Brick,                    !- Outside Layer
    Brick;                    !- Layer 2

CONSTRUCTION,
    SCZ1_Residential_2005_IntWall,    !- Name
    Brick,                    !- Outside Layer
    Brick;                    !- Layer 2

CONSTRUCTION,
    SCZ1_Residential_2015_IntWall,    !- Name
    Brick,                    !- Outside Layer
    Brick;                    !- Layer 2

CONSTRUCTION,
    SCZ2_Residential_1980_Roof,    !- Name
    AsphaltFelt,              !- Outside Layer
    Concrete,                 !- Layer 2
    Insulation 0.038;         !- Layer 3

CONSTRUCTION,
    SCZ2_Residential_1995_Roof,    !- Name
    AsphaltFelt,              !- Outside Layer
    Concrete,                 !- Layer 2
    Insulation 0.038;         !- Layer 3

CONSTRUCTION,
    SCZ2_Residential_2005_Roof,    !- Name
    AsphaltFelt,              !- Outside Layer
    Concrete,                 !- Layer 2
    Insulation 0.038;         !- Layer 3

CONSTRUCTION,
    SCZ2_Residential_2015_Roof,    !- Name
    AsphaltFelt,              !- Outside Layer
    Concrete,                 !- Layer 2
    Insulation 0.038;         !- Layer 3

CONSTRUCTION,
    SCZ2_Residential_1980_ExtWall,    !- Name
    Brick,                    !- Outside Layer
    Concrete,                 !- Layer 2
    Insulation 0.014;         !- Layer 3

CONSTRUCTION,
    SCZ2_Residential_1995_ExtWall,    !- Name
    Brick,                    !- Outside Layer
    Concrete,                 !- Layer 2
    Insulation 0.014;         !- Layer 3

CONSTRUCTION,
    SCZ2_Residential_2005_ExtWall,    !- Name
    Brick,                    !- Outside Layer
    Concrete,                 !- Layer 2
    Insulation 0.014;         !- Layer 3

CONSTRUCTION,
    SCZ2_Residential_2015_ExtWall,    !- Name
    Brick,                    !- Outside Layer
    Concrete,                 !- Layer 2
    Insulation 0.014;         !- Layer 3

CONSTRUCTION,
    SCZ2_Residential_1980_IntWall,    !- Name
    Brick,                    !- Outside Layer
    Brick;                    !- Layer 2

CONSTRUCTION,
    SCZ2_Residential_1995_IntWall,    !- Name
    Brick,                    !- Outside Layer
    Brick;                    !- Layer 2

CONSTRUCTION,
    SCZ2_Residential_2005_IntWall,    !- Name
    Brick,                    !- Outside Layer
    Brick;                    !- Layer 2

CONSTRUCTION,
    SCZ2_Residential_2015_IntWall,    !- Name
    Brick,                    !- Outside Layer
    Brick;                    !- Layer 2

CONSTRUCTION,
    CZ_Residential_1980_Roof,    !- Name
    AsphaltFelt,              !- Outside Layer
    Concrete,                 !- Layer 2
    Insulation 0.057;         !- Layer 3

CONSTRUCTION,
    CZ_Residential_1995_Roof,    !- Name
    AsphaltFelt,              !- Outside Layer
    Concrete,                 !- Layer 2
    Insulation 0.057;         !- Layer 3

CONSTRUCTION,
    CZ_Residential_2005_Roof,    !- Name
    AsphaltFelt,              !- Outside Layer
    Concrete,                 !- Layer 2
    Insulation 0.057;         !- Layer 3

CONSTRUCTION,
    CZ_Residential_2015_Roof,    !- Name
    AsphaltFelt,              !- Outside Layer
    Concrete,                 !- Layer 2
    Insulation 0.057;         !- Layer 3

CONSTRUCTION,
    CZ_Residential_1980_ExtWall,    !- Name
    Brick,                    !- Outside Layer
    Concrete,                 !- Layer 2
    Insulation 0.040;         !- Layer 3

CONSTRUCTION,
    CZ_Residential_1995_ExtWall,    !- Name
    Brick,                    !- Outside Layer
    Concrete,                 !- Layer 2
    Insulation 0.040;         !- Layer 3

CONSTRUCTION,
    CZ_Residential_2005_ExtWall,    !- Name
    Brick,                    !- Outside Layer
    Concrete,                 !- Layer 2
    Insulation 0.040;         !- Layer 3

CONSTRUCTION,
    CZ_Residential_2015_ExtWall,    !- Name
    Brick,                    !- Outside Layer
    Concrete,                 !- Layer 2
    Insulation 0.040;         !- Layer 3

CONSTRUCTION,
    CZ_Residential_1980_IntWall,    !- Name
    Brick,                    !- Outside Layer
    Brick;                    !- Layer 2

CONSTRUCTION,
    CZ_Residential_1995_IntWall,    !- Name
    Brick,                    !- Outside Layer
    Brick;                    !- Layer 2

CONSTRUCTION,
    CZ_Residential_2005_IntWall,    !- Name
    Brick,                    !- Outside Layer
    Brick;                    !- Layer 2

CONSTRUCTION,
    CZ_Residential_2015_IntWall,    !- Name
    Brick,                    !- Outside Layer
    Brick;                    !- Layer 2

CONSTRUCTION,
    HSCWZ_Residential_1980_Roof,    !- Name
    AsphaltFelt,              !- Outside Layer
    Concrete,                 !- Layer 2
    Insulation 0.029;         !- Layer 3

CONSTRUCTION,
    HSCWZ_Residential_1995_Roof,    !- Name
    AsphaltFelt,              !- Outside Layer
    Concrete,                 !- Layer 2
    Insulation 0.029;         !- Layer 3

CONSTRUCTION,
    HSCWZ_Residential_2005_Roof,    !- Name
    AsphaltFelt,              !- Outside Layer
    Concrete,                 !- Layer 2
    Insulation 0.029;         !- Layer 3

CONSTRUCTION,
    HSCWZ_Residential_2015_Roof,    !- Name
    AsphaltFelt,              !- Outside Layer
    Concrete,                 !- Layer 2
    Insulation 0.029;         !- Layer 3

CONSTRUCTION,
    HSCWZ_Residential_1980_ExtWall,    !- Name
    Brick,                    !- Outside Layer
    Concrete,                 !- Layer 2
    Insulation 0.011;         !- Layer 3

CONSTRUCTION,
    HSCWZ_Residential_1995_ExtWall,    !- Name
    Brick,                    !- Outside Layer
    Concrete,                 !- Layer 2
    Insulation 0.011;         !- Layer 3

CONSTRUCTION,
    HSCWZ_Residential_2005_ExtWall,    !- Name
    Brick,                    !- Outside Layer
    Concrete,                 !- Layer 2
    Insulation 0.011;         !- Layer 3

CONSTRUCTION,
    HSCWZ_Residential_2015_ExtWall,    !- Name
    Brick,                    !- Outside Layer
    Concrete,                 !- Layer 2
    Insulation 0.011;         !- Layer 3

CONSTRUCTION,
    HSCWZ_Residential_1980_IntWall,    !- Name
    Brick,                    !- Outside Layer
    Brick;                    !- Layer 2

CONSTRUCTION,
    HSCWZ_Residential_1995_IntWall,    !- Name
    Brick,                    !- Outside Layer
    Brick;                    !- Layer 2

CONSTRUCTION,
    HSCWZ_Residential_2005_IntWall,    !- Name
    Brick,                    !- Outside Layer
    Brick;                    !- Layer 2

CONSTRUCTION,
    HSCWZ_Residential_2015_IntWall,    !- Name
    Brick,                    !- Outside Layer
    Brick;                    !- Layer 2

CONSTRUCTION,
    HSWWZ_Residential_1980_Roof,    !- Name
    AsphaltFelt,              !- Outside Layer
    Concrete,                 !- Layer 2
    Insulation 0.014;         !- Layer 3

CONSTRUCTION,
    HSWWZ_Residential_1995_Roof,    !- Name
    AsphaltFelt,              !- Outside Layer
    Concrete,                 !- Layer 2
    Insulation 0.014;         !- Layer 3

CONSTRUCTION,
    HSWWZ_Residential_2005_Roof,    !- Name
    AsphaltFelt,              !- Outside Layer
    Concrete,                 !- Layer 2
    Insulation 0.014;         !- Layer 3

CONSTRUCTION,
    HSWWZ_Residential_2015_Roof,    !- Name
    AsphaltFelt,              !- Outside Layer
    Concrete,                 !- Layer 2
    Insulation 0.014;         !- Layer 3

CONSTRUCTION,
    HSWWZ_Residential_1980_ExtWall,    !- Name
    Brick,                    !- Outside Layer
    Concrete,                 !- Layer 2
    Insulation 0.007;         !- Layer 3

CONSTRUCTION,
    HSWWZ_Residential_1995_ExtWall,    !- Name
    Brick,                    !- Outside Layer
    Concrete,                 !- Layer 2
    Insulation 0.007;         !- Layer 3

CONSTRUCTION,
    HSWWZ_Residential_2005_ExtWall,    !- Name
    Brick,                    !- Outside Layer
    Concrete,                 !- Layer 2
    Insulation 0.007;         !- Layer 3

CONSTRUCTION,
    HSWWZ_Residential_2015_ExtWall,    !- Name
    Brick,                    !- Outside Layer
    Concrete,                 !- Layer 2
    Insulation 0.007;         !- Layer 3

CONSTRUCTION,
    HSWWZ_Residential_1980_IntWall,    !- Name
    Brick,                    !- Outside Layer
    Brick;                    !- Layer 2

CONSTRUCTION,
    HSWWZ_Residential_1995_IntWall,    !- Name
    Brick,                    !- Outside Layer
    Brick;                    !- Layer 2

CONSTRUCTION,
    HSWWZ_Residential_2005_IntWall,    !- Name
    Brick,                    !- Outside Layer
    Brick;                    !- Layer 2

CONSTRUCTION,
    HSWWZ_Residential_2015_IntWall,    !- Name
    Brick,                    !- Outside Layer
    Brick;                    !- Layer 2

CONSTRUCTION,
    TZ_Residential_1980_Roof,    !- Name
    AsphaltFelt,              !- Outside Layer
    Concrete,                 !- Layer 2
    Insulation 0.012;         !- Layer 3

CONSTRUCTION,
    TZ_Residential_1995_Roof,    !- Name
    AsphaltFelt,              !- Outside Layer
    Concrete,                 !- Layer 2
    Insulation 0.012;         !- Layer 3

CONSTRUCTION,
    TZ_Residential_2005_Roof,    !- Name
    AsphaltFelt,              !- Outside Layer
    Concrete,                 !- Layer 2
    Insulation 0.012;         !- Layer 3

CONSTRUCTION,
    TZ_Residential_2015_Roof,    !- Name
    AsphaltFelt,              !- Outside Layer
    Concrete,                 !- Layer 2
    Insulation 0.012;         !- Layer 3

CONSTRUCTION,
    TZ_Residential_1980_ExtWall,    !- Name
    Brick,                    !- Outside Layer
    Concrete,                 !- Layer 2
    Insulation 0.007;         !- Layer 3

CONSTRUCTION,
    TZ_Residential_1995_ExtWall,    !- Name
    Brick,                    !- Outside Layer
    Concrete,                 !- Layer 2
    Insulation 0.007;         !- Layer 3

CONSTRUCTION,
    TZ_Residential_2005_ExtWall,    !- Name
    Brick,                    !- Outside Layer
    Concrete,                 !- Layer 2
    Insulation 0.007;         !- Layer 3

CONSTRUCTION,
    TZ_Residential_2015_ExtWall,    !- Name
    Brick,                    !- Outside Layer
    Concrete,                 !- Layer 2
    Insulation 0.007;         !- Layer 3

CONSTRUCTION,
    TZ_Residential_1980_IntWall,    !- Name
    Brick,                    !- Outside Layer
    Brick;                    !- Layer 2

CONSTRUCTION,
    TZ_Residential_1995_IntWall,    !- Name
    Brick,                    !- Outside Layer
    Brick;                    !- Layer 2

CONSTRUCTION,
    TZ_Residential_2005_IntWall,    !- Name
    Brick,                    !- Outside Layer
    Brick;                    !- Layer 2

CONSTRUCTION,
    TZ_Residential_2015_IntWall,    !- Name
    Brick,                    !- Outside Layer
    Brick;                    !- Layer 2

GLOBALGEOMETRYRULES,
    UpperRightCorner,         !- Starting Vertex Position
    Counterclockwise,         !- Vertex Entry Direction
    Relative,                 !- Coordinate System
    Relative,                 !- Daylighting Reference Point Coordinate System
    Relative;                 !- Rectangular Surface Coordinate System

ZONE,
    Block Poly_110_Residential_1 Storey 0,    !- Name
    0,                        !- Direction of Relative North
    0,                        !- X Origin
    0,                        !- Y Origin
    0,                        !- Z Origin
    1,                        !- Type
    1,                        !- Multiplier
    autocalculate,            !- Ceiling Height
    autocalculate,            !- Volume
    autocalculate,            !- Floor Area
    ,                         !- Zone Inside Convection Algorithm
    ,                         !- Zone Outside Convection Algorithm
    Yes;                      !- Part of Total Floor Area

ZONE,
    Block Poly_110_Residential_1 Storey 1,    !- Name
    0,                        !- Direction of Relative North
    0,                        !- X Origin
    0,                        !- Y Origin
    0,                        !- Z Origin
    1,                        !- Type
    1,                        !- Multiplier
    autocalculate,            !- Ceiling Height
    autocalculate,            !- Volume
    autocalculate,            !- Floor Area
    ,                         !- Zone Inside Convection Algorithm
    ,                         !- Zone Outside Convection Algorithm
    Yes;                      !- Part of Total Floor Area

ZONE,
    Block Poly_110_Residential_1 Storey 2,    !- Name
    0,                        !- Direction of Relative North
    0,                        !- X Origin
    0,                        !- Y Origin
    0,                        !- Z Origin
    1,                        !- Type
    1,                        !- Multiplier
    autocalculate,            !- Ceiling Height
    autocalculate,            !- Volume
    autocalculate,            !- Floor Area
    ,                         !- Zone Inside Convection Algorithm
    ,                         !- Zone Outside Convection Algorithm
    Yes;                      !- Part of Total Floor Area

BUILDINGSURFACE:DETAILED,
    Block Poly_110_Residential_1 Storey 0 Wall 0001,    !- Name
    Wall,                     !- Surface Type
    HSCWZ_Residential_1995_ExtWall,    !- Construction Name
    Block Poly_110_Residential_1 Storey 0,    !- Zone Name
    ,                         !- Space Name
    Outdoors,                 !- Outside Boundary Condition
    ,                         !- Outside Boundary Condition Object
    SunExposed,               !- Sun Exposure
    WindExposed,              !- Wind Exposure
    autocalculate,            !- View Factor to Ground
    autocalculate,            !- Number of Vertices
    0,                        !- Vertex 1 Xcoordinate
    14.432406114879996,       !- Vertex 1 Ycoordinate
    3,                        !- Vertex 1 Zcoordinate
    0,                        !- Vertex 2 Xcoordinate
    14.432406114879996,       !- Vertex 2 Ycoordinate
    0,                        !- Vertex 2 Zcoordinate
    8.354492990591098,        !- Vertex 3 Xcoordinate
    0,                        !- Vertex 3 Ycoordinate
    0,                        !- Vertex 3 Zcoordinate
    8.354492990591098,        !- Vertex 4 Xcoordinate
    0,                        !- Vertex 4 Ycoordinate
    3;                        !- Vertex 4 Zcoordinate

BUILDINGSURFACE:DETAILED,
    Block Poly_110_Residential_1 Storey 0 Wall 0002,    !- Name
    Wall,                     !- Surface Type
    HSCWZ_Residential_1995_ExtWall,    !- Construction Name
    Block Poly_110_Residential_1 Storey 0,    !- Zone Name
    ,                         !- Space Name
    Outdoors,                 !- Outside Boundary Condition
    ,                         !- Outside Boundary Condition Object
    SunExposed,               !- Sun Exposure
    WindExposed,              !- Wind Exposure
    autocalculate,            !- View Factor to Ground
    autocalculate,            !- Number of Vertices
    8.354492990591098,        !- Vertex 1 Xcoordinate
    0,                        !- Vertex 1 Ycoordinate
    3,                        !- Vertex 1 Zcoordinate
    8.354492990591098,        !- Vertex 2 Xcoordinate
    0,                        !- Vertex 2 Ycoordinate
    0,                        !- Vertex 2 Zcoordinate
    15.974414834170602,       !- Vertex 3 Xcoordinate
    5.869644823484123,        !- Vertex 3 Ycoordinate
    0,                        !- Vertex 3 Zcoordinate
    15.974414834170602,       !- Vertex 4 Xcoordinate
    5.869644823484123,        !- Vertex 4 Ycoordinate
    3;                        !- Vertex 4 Zcoordinate

BUILDINGSURFACE:DETAILED,
    Block Poly_110_Residential_1 Storey 0 Wall 0003,    !- Name
    Wall,                     !- Surface Type
    HSCWZ_Residential_1995_ExtWall,    !- Construction Name
    Block Poly_110_Residential_1 Storey 0,    !- Zone Name
    ,                         !- Space Name
    Outdoors,                 !- Outside Boundary Condition
    ,                         !- Outside Boundary Condition Object
    SunExposed,               !- Sun Exposure
    WindExposed,              !- Wind Exposure
    autocalculate,            !- View Factor to Ground
    autocalculate,            !- Number of Vertices
    15.974414834170602,       !- Vertex 1 Xcoordinate
    5.869644823484123,        !- Vertex 1 Ycoordinate
    3,                        !- Vertex 1 Zcoordinate
    15.974414834170602,       !- Vertex 2 Xcoordinate
    5.869644823484123,        !- Vertex 2 Ycoordinate
    0,                        !- Vertex 2 Zcoordinate
    7.621630362060387,        !- Vertex 3 Xcoordinate
    20.412896383553743,       !- Vertex 3 Ycoordinate
    0,                        !- Vertex 3 Zcoordinate
    7.621630362060387,        !- Vertex 4 Xcoordinate
    20.412896383553743,       !- Vertex 4 Ycoordinate
    3;                        !- Vertex 4 Zcoordinate

BUILDINGSURFACE:DETAILED,
    Block Poly_110_Residential_1 Storey 0 Wall 0004,    !- Name
    Wall,                     !- Surface Type
    HSCWZ_Residential_1995_ExtWall,    !- Construction Name
    Block Poly_110_Residential_1 Storey 0,    !- Zone Name
    ,                         !- Space Name
    Outdoors,                 !- Outside Boundary Condition
    ,                         !- Outside Boundary Condition Object
    SunExposed,               !- Sun Exposure
    WindExposed,              !- Wind Exposure
    autocalculate,            !- View Factor to Ground
    autocalculate,            !- Number of Vertices
    7.621630362060387,        !- Vertex 1 Xcoordinate
    20.412896383553743,       !- Vertex 1 Ycoordinate
    3,                        !- Vertex 1 Zcoordinate
    7.621630362060387,        !- Vertex 2 Xcoordinate
    20.412896383553743,       !- Vertex 2 Ycoordinate
    0,                        !- Vertex 2 Zcoordinate
    0,                        !- Vertex 3 Xcoordinate
    14.432406114879996,       !- Vertex 3 Ycoordinate
    0,                        !- Vertex 3 Zcoordinate
    0,                        !- Vertex 4 Xcoordinate
    14.432406114879996,       !- Vertex 4 Ycoordinate
    3;                        !- Vertex 4 Zcoordinate

BUILDINGSURFACE:DETAILED,
    Block Poly_110_Residential_1 Storey 0 Floor 0001,    !- Name
    Floor,                    !- Surface Type
    HSCWZ_Residential_1995_FloorGround,    !- Construction Name
    Block Poly_110_Residential_1 Storey 0,    !- Zone Name
    ,                         !- Space Name
    Ground,                   !- Outside Boundary Condition
    ,                         !- Outside Boundary Condition Object
    NoSun,                    !- Sun Exposure
    NoWind,                   !- Wind Exposure
    autocalculate,            !- View Factor to Ground
    autocalculate,            !- Number of Vertices
    7.621630362060387,        !- Vertex 1 Xcoordinate
    20.412896383553743,       !- Vertex 1 Ycoordinate
    0,                        !- Vertex 1 Zcoordinate
    15.974414834170602,       !- Vertex 2 Xcoordinate
    5.869644823484123,        !- Vertex 2 Ycoordinate
    0,                        !- Vertex 2 Zcoordinate
    8.354492990591098,        !- Vertex 3 Xcoordinate
    0,                        !- Vertex 3 Ycoordinate
    0,                        !- Vertex 3 Zcoordinate
    0,                        !- Vertex 4 Xcoordinate
    14.432406114879996,       !- Vertex 4 Ycoordinate
    0;                        !- Vertex 4 Zcoordinate

BUILDINGSURFACE:DETAILED,
    Block Poly_110_Residential_1 Storey 1 Wall 0001,    !- Name
    Wall,                     !- Surface Type
    HSCWZ_Residential_1995_ExtWall,    !- Construction Name
    Block Poly_110_Residential_1 Storey 1,    !- Zone Name
    ,                         !- Space Name
    Outdoors,                 !- Outside Boundary Condition
    ,                         !- Outside Boundary Condition Object
    SunExposed,               !- Sun Exposure
    WindExposed,              !- Wind Exposure
    autocalculate,            !- View Factor to Ground
    autocalculate,            !- Number of Vertices
    0,                        !- Vertex 1 Xcoordinate
    14.432406114879996,       !- Vertex 1 Ycoordinate
    6,                        !- Vertex 1 Zcoordinate
    0,                        !- Vertex 2 Xcoordinate
    14.432406114879996,       !- Vertex 2 Ycoordinate
    3,                        !- Vertex 2 Zcoordinate
    8.354492990591098,        !- Vertex 3 Xcoordinate
    0,                        !- Vertex 3 Ycoordinate
    3,                        !- Vertex 3 Zcoordinate
    8.354492990591098,        !- Vertex 4 Xcoordinate
    0,                        !- Vertex 4 Ycoordinate
    6;                        !- Vertex 4 Zcoordinate

BUILDINGSURFACE:DETAILED,
    Block Poly_110_Residential_1 Storey 1 Wall 0002,    !- Name
    Wall,                     !- Surface Type
    HSCWZ_Residential_1995_ExtWall,    !- Construction Name
    Block Poly_110_Residential_1 Storey 1,    !- Zone Name
    ,                         !- Space Name
    Outdoors,                 !- Outside Boundary Condition
    ,                         !- Outside Boundary Condition Object
    SunExposed,               !- Sun Exposure
    WindExposed,              !- Wind Exposure
    autocalculate,            !- View Factor to Ground
    autocalculate,            !- Number of Vertices
    8.354492990591098,        !- Vertex 1 Xcoordinate
    0,                        !- Vertex 1 Ycoordinate
    6,                        !- Vertex 1 Zcoordinate
    8.354492990591098,        !- Vertex 2 Xcoordinate
    0,                        !- Vertex 2 Ycoordinate
    3,                        !- Vertex 2 Zcoordinate
    15.974414834170602,       !- Vertex 3 Xcoordinate
    5.869644823484123,        !- Vertex 3 Ycoordinate
    3,                        !- Vertex 3 Zcoordinate
    15.974414834170602,       !- Vertex 4 Xcoordinate
    5.869644823484123,        !- Vertex 4 Ycoordinate
    6;                        !- Vertex 4 Zcoordinate

BUILDINGSURFACE:DETAILED,
    Block Poly_110_Residential_1 Storey 1 Wall 0003,    !- Name
    Wall,                     !- Surface Type
    HSCWZ_Residential_1995_ExtWall,    !- Construction Name
    Block Poly_110_Residential_1 Storey 1,    !- Zone Name
    ,                         !- Space Name
    Outdoors,                 !- Outside Boundary Condition
    ,                         !- Outside Boundary Condition Object
    SunExposed,               !- Sun Exposure
    WindExposed,              !- Wind Exposure
    autocalculate,            !- View Factor to Ground
    autocalculate,            !- Number of Vertices
    15.974414834170602,       !- Vertex 1 Xcoordinate
    5.869644823484123,        !- Vertex 1 Ycoordinate
    6,                        !- Vertex 1 Zcoordinate
    15.974414834170602,       !- Vertex 2 Xcoordinate
    5.869644823484123,        !- Vertex 2 Ycoordinate
    3,                        !- Vertex 2 Zcoordinate
    7.621630362060387,        !- Vertex 3 Xcoordinate
    20.412896383553743,       !- Vertex 3 Ycoordinate
    3,                        !- Vertex 3 Zcoordinate
    7.621630362060387,        !- Vertex 4 Xcoordinate
    20.412896383553743,       !- Vertex 4 Ycoordinate
    6;                        !- Vertex 4 Zcoordinate

BUILDINGSURFACE:DETAILED,
    Block Poly_110_Residential_1 Storey 1 Wall 0004,    !- Name
    Wall,                     !- Surface Type
    HSCWZ_Residential_1995_ExtWall,    !- Construction Name
    Block Poly_110_Residential_1 Storey 1,    !- Zone Name
    ,                         !- Space Name
    Outdoors,                 !- Outside Boundary Condition
    ,                         !- Outside Boundary Condition Object
    SunExposed,               !- Sun Exposure
    WindExposed,              !- Wind Exposure
    autocalculate,            !- View Factor to Ground
    autocalculate,            !- Number of Vertices
    7.621630362060387,        !- Vertex 1 Xcoordinate
    20.412896383553743,       !- Vertex 1 Ycoordinate
    6,                        !- Vertex 1 Zcoordinate
    7.621630362060387,        !- Vertex 2 Xcoordinate
    20.412896383553743,       !- Vertex 2 Ycoordinate
    3,                        !- Vertex 2 Zcoordinate
    0,                        !- Vertex 3 Xcoordinate
    14.432406114879996,       !- Vertex 3 Ycoordinate
    3,                        !- Vertex 3 Zcoordinate
    0,                        !- Vertex 4 Xcoordinate
    14.432406114879996,       !- Vertex 4 Ycoordinate
    6;                        !- Vertex 4 Zcoordinate

BUILDINGSURFACE:DETAILED,
    Block Poly_110_Residential_1 Storey 2 Wall 0001,    !- Name
    Wall,                     !- Surface Type
    HSCWZ_Residential_1995_ExtWall,    !- Construction Name
    Block Poly_110_Residential_1 Storey 2,    !- Zone Name
    ,                         !- Space Name
    Outdoors,                 !- Outside Boundary Condition
    ,                         !- Outside Boundary Condition Object
    SunExposed,               !- Sun Exposure
    WindExposed,              !- Wind Exposure
    autocalculate,            !- View Factor to Ground
    autocalculate,            !- Number of Vertices
    0,                        !- Vertex 1 Xcoordinate
    14.432406114879996,       !- Vertex 1 Ycoordinate
    9,                        !- Vertex 1 Zcoordinate
    0,                        !- Vertex 2 Xcoordinate
    14.432406114879996,       !- Vertex 2 Ycoordinate
    6,                        !- Vertex 2 Zcoordinate
    8.354492990591098,        !- Vertex 3 Xcoordinate
    0,                        !- Vertex 3 Ycoordinate
    6,                        !- Vertex 3 Zcoordinate
    8.354492990591098,        !- Vertex 4 Xcoordinate
    0,                        !- Vertex 4 Ycoordinate
    9;                        !- Vertex 4 Zcoordinate

BUILDINGSURFACE:DETAILED,
    Block Poly_110_Residential_1 Storey 2 Wall 0002,    !- Name
    Wall,                     !- Surface Type
    HSCWZ_Residential_1995_ExtWall,    !- Construction Name
    Block Poly_110_Residential_1 Storey 2,    !- Zone Name
    ,                         !- Space Name
    Outdoors,                 !- Outside Boundary Condition
    ,                         !- Outside Boundary Condition Object
    SunExposed,               !- Sun Exposure
    WindExposed,              !- Wind Exposure
    autocalculate,            !- View Factor to Ground
    autocalculate,            !- Number of Vertices
    8.354492990591098,        !- Vertex 1 Xcoordinate
    0,                        !- Vertex 1 Ycoordinate
    9,                        !- Vertex 1 Zcoordinate
    8.354492990591098,        !- Vertex 2 Xcoordinate
    0,                        !- Vertex 2 Ycoordinate
    6,                        !- Vertex 2 Zcoordinate
    15.974414834170602,       !- Vertex 3 Xcoordinate
    5.869644823484123,        !- Vertex 3 Ycoordinate
    6,                        !- Vertex 3 Zcoordinate
    15.974414834170602,       !- Vertex 4 Xcoordinate
    5.869644823484123,        !- Vertex 4 Ycoordinate
    9;                        !- Vertex 4 Zcoordinate

BUILDINGSURFACE:DETAILED,
    Block Poly_110_Residential_1 Storey 2 Wall 0003,    !- Name
    Wall,                     !- Surface Type
    HSCWZ_Residential_1995_ExtWall,    !- Construction Name
    Block Poly_110_Residential_1 Storey 2,    !- Zone Name
    ,                         !- Space Name
    Outdoors,                 !- Outside Boundary Condition
    ,                         !- Outside Boundary Condition Object
    SunExposed,               !- Sun Exposure
    WindExposed,              !- Wind Exposure
    autocalculate,            !- View Factor to Ground
    autocalculate,            !- Number of Vertices
    15.974414834170602,       !- Vertex 1 Xcoordinate
    5.869644823484123,        !- Vertex 1 Ycoordinate
    9,                        !- Vertex 1 Zcoordinate
    15.974414834170602,       !- Vertex 2 Xcoordinate
    5.869644823484123,        !- Vertex 2 Ycoordinate
    6,                        !- Vertex 2 Zcoordinate
    7.621630362060387,        !- Vertex 3 Xcoordinate
    20.412896383553743,       !- Vertex 3 Ycoordinate
    6,                        !- Vertex 3 Zcoordinate
    7.621630362060387,        !- Vertex 4 Xcoordinate
    20.412896383553743,       !- Vertex 4 Ycoordinate
    9;                        !- Vertex 4 Zcoordinate

BUILDINGSURFACE:DETAILED,
    Block Poly_110_Residential_1 Storey 2 Wall 0004,    !- Name
    Wall,                     !- Surface Type
    HSCWZ_Residential_1995_ExtWall,    !- Construction Name
    Block Poly_110_Residential_1 Storey 2,    !- Zone Name
    ,                         !- Space Name
    Outdoors,                 !- Outside Boundary Condition
    ,                         !- Outside Boundary Condition Object
    SunExposed,               !- Sun Exposure
    WindExposed,              !- Wind Exposure
    autocalculate,            !- View Factor to Ground
    autocalculate,            !- Number of Vertices
    7.621630362060387,        !- Vertex 1 Xcoordinate
    20.412896383553743,       !- Vertex 1 Ycoordinate
    9,                        !- Vertex 1 Zcoordinate
    7.621630362060387,        !- Vertex 2 Xcoordinate
    20.412896383553743,       !- Vertex 2 Ycoordinate
    6,                        !- Vertex 2 Zcoordinate
    0,                        !- Vertex 3 Xcoordinate
    14.432406114879996,       !- Vertex 3 Ycoordinate
    6,                        !- Vertex 3 Zcoordinate
    0,                        !- Vertex 4 Xcoordinate
    14.432406114879996,       !- Vertex 4 Ycoordinate
    9;                        !- Vertex 4 Zcoordinate

BUILDINGSURFACE:DETAILED,
    Block Poly_110_Residential_1 Storey 2 Roof 0001,    !- Name
    Roof,                     !- Surface Type
    HSCWZ_Residential_1995_Roof,    !- Construction Name
    Block Poly_110_Residential_1 Storey 2,    !- Zone Name
    ,                         !- Space Name
    Outdoors,                 !- Outside Boundary Condition
    ,                         !- Outside Boundary Condition Object
    SunExposed,               !- Sun Exposure
    WindExposed,              !- Wind Exposure
    autocalculate,            !- View Factor to Ground
    autocalculate,            !- Number of Vertices
    15.974414834170602,       !- Vertex 1 Xcoordinate
    5.869644823484123,        !- Vertex 1 Ycoordinate
    9,                        !- Vertex 1 Zcoordinate
    7.621630362060387,        !- Vertex 2 Xcoordinate
    20.412896383553743,       !- Vertex 2 Ycoordinate
    9,                        !- Vertex 2 Zcoordinate
    0,                        !- Vertex 3 Xcoordinate
    14.432406114879996,       !- Vertex 3 Ycoordinate
    9,                        !- Vertex 3 Zcoordinate
    8.354492990591098,        !- Vertex 4 Xcoordinate
    0,                        !- Vertex 4 Ycoordinate
    9;                        !- Vertex 4 Zcoordinate

BUILDINGSURFACE:DETAILED,
    Block Poly_110_Residential_1 Storey 0 Ceiling 0001_1,    !- Name
    Ceiling,                  !- Surface Type
    HSCWZ_Residential_1995_FloorSlab,    !- Construction Name
    Block Poly_110_Residential_1 Storey 0,    !- Zone Name
    ,                         !- Space Name
    Surface,                  !- Outside Boundary Condition
    Block Poly_110_Residential_1 Storey 1 Floor 0001_1,    !- Outside Boundary Condition Object
    NoSun,                    !- Sun Exposure
    NoWind,                   !- Wind Exposure
    autocalculate,            !- View Factor to Ground
    autocalculate,            !- Number of Vertices
    15.974414833821356,       !- Vertex 1 Xcoordinate
    5.869644823484123,        !- Vertex 1 Ycoordinate
    3,                        !- Vertex 1 Zcoordinate
    7.621630361769348,        !- Vertex 2 Xcoordinate
    20.412896383553743,       !- Vertex 2 Ycoordinate
    3,                        !- Vertex 2 Zcoordinate
    0,                        !- Vertex 3 Xcoordinate
    14.432406114879996,       !- Vertex 3 Ycoordinate
    3,                        !- Vertex 3 Zcoordinate
    8.35449299030006,         !- Vertex 4 Xcoordinate
    0,                        !- Vertex 4 Ycoordinate
    3;                        !- Vertex 4 Zcoordinate

BUILDINGSURFACE:DETAILED,
    Block Poly_110_Residential_1 Storey 1 Floor 0001_1,    !- Name
    Floor,                    !- Surface Type
    HSCWZ_Residential_1995_FloorSlab,    !- Construction Name
    Block Poly_110_Residential_1 Storey 1,    !- Zone Name
    ,                         !- Space Name
    Surface,                  !- Outside Boundary Condition
    Block Poly_110_Residential_1 Storey 0 Ceiling 0001_1,    !- Outside Boundary Condition Object
    NoSun,                    !- Sun Exposure
    NoWind,                   !- Wind Exposure
    autocalculate,            !- View Factor to Ground
    autocalculate,            !- Number of Vertices
    7.621630361769348,        !- Vertex 1 Xcoordinate
    20.412896383553743,       !- Vertex 1 Ycoordinate
    3,                        !- Vertex 1 Zcoordinate
    15.974414833821356,       !- Vertex 2 Xcoordinate
    5.869644823484123,        !- Vertex 2 Ycoordinate
    3,                        !- Vertex 2 Zcoordinate
    8.35449299030006,         !- Vertex 3 Xcoordinate
    0,                        !- Vertex 3 Ycoordinate
    3,                        !- Vertex 3 Zcoordinate
    0,                        !- Vertex 4 Xcoordinate
    14.432406114879996,       !- Vertex 4 Ycoordinate
    3;                        !- Vertex 4 Zcoordinate

BUILDINGSURFACE:DETAILED,
    Block Poly_110_Residential_1 Storey 1 Ceiling 0001_1,    !- Name
    Ceiling,                  !- Surface Type
    HSCWZ_Residential_1995_FloorSlab,    !- Construction Name
    Block Poly_110_Residential_1 Storey 1,    !- Zone Name
    ,                         !- Space Name
    Surface,                  !- Outside Boundary Condition
    Block Poly_110_Residential_1 Storey 2 Floor 0001_1,    !- Outside Boundary Condition Object
    NoSun,                    !- Sun Exposure
    NoWind,                   !- Wind Exposure
    autocalculate,            !- View Factor to Ground
    autocalculate,            !- Number of Vertices
    15.974414833821356,       !- Vertex 1 Xcoordinate
    5.869644823484123,        !- Vertex 1 Ycoordinate
    6,                        !- Vertex 1 Zcoordinate
    7.621630361769348,        !- Vertex 2 Xcoordinate
    20.412896383553743,       !- Vertex 2 Ycoordinate
    6,                        !- Vertex 2 Zcoordinate
    0,                        !- Vertex 3 Xcoordinate
    14.432406114879996,       !- Vertex 3 Ycoordinate
    6,                        !- Vertex 3 Zcoordinate
    8.35449299030006,         !- Vertex 4 Xcoordinate
    0,                        !- Vertex 4 Ycoordinate
    6;                        !- Vertex 4 Zcoordinate

BUILDINGSURFACE:DETAILED,
    Block Poly_110_Residential_1 Storey 2 Floor 0001_1,    !- Name
    Floor,                    !- Surface Type
    HSCWZ_Residential_1995_FloorSlab,    !- Construction Name
    Block Poly_110_Residential_1 Storey 2,    !- Zone Name
    ,                         !- Space Name
    Surface,                  !- Outside Boundary Condition
    Block Poly_110_Residential_1 Storey 1 Ceiling 0001_1,    !- Outside Boundary Condition Object
    NoSun,                    !- Sun Exposure
    NoWind,                   !- Wind Exposure
    autocalculate,            !- View Factor to Ground
    autocalculate,            !- Number of Vertices
    7.621630361769348,        !- Vertex 1 Xcoordinate
    20.412896383553743,       !- Vertex 1 Ycoordinate
    6,                        !- Vertex 1 Zcoordinate
    15.974414833821356,       !- Vertex 2 Xcoordinate
    5.869644823484123,        !- Vertex 2 Ycoordinate
    6,                        !- Vertex 2 Zcoordinate
    8.35449299030006,         !- Vertex 3 Xcoordinate
    0,                        !- Vertex 3 Ycoordinate
    6,                        !- Vertex 3 Zcoordinate
    0,                        !- Vertex 4 Xcoordinate
    14.432406114879996,       !- Vertex 4 Ycoordinate
    6;                        !- Vertex 4 Zcoordinate

FENESTRATIONSURFACE:DETAILED,
    Block Poly_110_Residential_1 Storey 0 Wall 0001 window,    !- Name
    Window,                   !- Surface Type
    HSCWZ_Residential_1995_Win,    !- Construction Name
    Block Poly_110_Residential_1 Storey 0 Wall 0001,    !- Building Surface Name
    ,                         !- Outside Boundary Condition Object
    autocalculate,            !- View Factor to Ground
    ,                         !- Frame and Divider Name
    1,                        !- Multiplier
    autocalculate,            !- Number of Vertices
    0.004177246,              !- Vertex 1 Xcoordinate
    14.425189911822557,       !- Vertex 1 Ycoordinate
    1.95,                     !- Vertex 1 Zcoordinate
    0.004177246,              !- Vertex 2 Xcoordinate
    14.425189911822557,       !- Vertex 2 Ycoordinate
    1.05,                     !- Vertex 2 Zcoordinate
    8.350315744095802,        !- Vertex 3 Xcoordinate
    0.007216203,              !- Vertex 3 Ycoordinate
    1.05,                     !- Vertex 3 Zcoordinate
    8.350315744095802,        !- Vertex 4 Xcoordinate
    0.007216203,              !- Vertex 4 Ycoordinate
    1.95;                     !- Vertex 4 Zcoordinate

FENESTRATIONSURFACE:DETAILED,
    Block Poly_110_Residential_1 Storey 0 Wall 0002 window,    !- Name
    Window,                   !- Surface Type
    HSCWZ_Residential_1995_Win,    !- Construction Name
    Block Poly_110_Residential_1 Storey 0 Wall 0002,    !- Building Surface Name
    ,                         !- Outside Boundary Condition Object
    autocalculate,            !- View Factor to Ground
    ,                         !- Frame and Divider Name
    1,                        !- Multiplier
    autocalculate,            !- Number of Vertices
    8.358302951512886,        !- Vertex 1 Xcoordinate
    0.002934822,              !- Vertex 1 Ycoordinate
    1.95,                     !- Vertex 1 Zcoordinate
    8.358302951512886,        !- Vertex 2 Xcoordinate
    0.002934822,              !- Vertex 2 Ycoordinate
    1.05,                     !- Vertex 2 Zcoordinate
    15.970604873248814,       !- Vertex 3 Xcoordinate
    5.866710001072381,        !- Vertex 3 Ycoordinate
    1.05,                     !- Vertex 3 Zcoordinate
    15.970604873248814,       !- Vertex 4 Xcoordinate
    5.866710001072381,        !- Vertex 4 Ycoordinate
    1.95;                     !- Vertex 4 Zcoordinate

FENESTRATIONSURFACE:DETAILED,
    Block Poly_110_Residential_1 Storey 0 Wall 0003 window,    !- Name
    Window,                   !- Surface Type
    HSCWZ_Residential_1995_Win,    !- Construction Name
    Block Poly_110_Residential_1 Storey 0 Wall 0003,    !- Building Surface Name
    ,                         !- Outside Boundary Condition Object
    autocalculate,            !- View Factor to Ground
    ,                         !- Frame and Divider Name
    1,                        !- Multiplier
    autocalculate,            !- Number of Vertices
    15.970238441934548,       !- Vertex 1 Xcoordinate
    5.876916449264158,        !- Vertex 1 Ycoordinate
    1.95,                     !- Vertex 1 Zcoordinate
    15.970238441934548,       !- Vertex 2 Xcoordinate
    5.876916449264158,        !- Vertex 2 Ycoordinate
    1.05,                     !- Vertex 2 Zcoordinate
    7.625806754296442,        !- Vertex 3 Xcoordinate
    20.405624757773708,       !- Vertex 3 Ycoordinate
    1.05,                     !- Vertex 3 Zcoordinate
    7.625806754296442,        !- Vertex 4 Xcoordinate
    20.405624757773708,       !- Vertex 4 Ycoordinate
    1.95;                     !- Vertex 4 Zcoordinate

FENESTRATIONSURFACE:DETAILED,
    Block Poly_110_Residential_1 Storey 0 Wall 0004 window,    !- Name
    Window,                   !- Surface Type
    HSCWZ_Residential_1995_Win,    !- Construction Name
    Block Poly_110_Residential_1 Storey 0 Wall 0004,    !- Building Surface Name
    ,                         !- Outside Boundary Condition Object
    autocalculate,            !- View Factor to Ground
    ,                         !- Frame and Divider Name
    1,                        !- Multiplier
    autocalculate,            !- Number of Vertices
    7.617819546879357,        !- Vertex 1 Xcoordinate
    20.409906138419405,       !- Vertex 1 Ycoordinate
    1.95,                     !- Vertex 1 Zcoordinate
    7.617819546879357,        !- Vertex 2 Xcoordinate
    20.409906138419405,       !- Vertex 2 Ycoordinate
    1.05,                     !- Vertex 2 Zcoordinate
    0.003810815,              !- Vertex 3 Xcoordinate
    14.435396360014332,       !- Vertex 3 Ycoordinate
    1.05,                     !- Vertex 3 Zcoordinate
    0.003810815,              !- Vertex 4 Xcoordinate
    14.435396360014332,       !- Vertex 4 Ycoordinate
    1.95;                     !- Vertex 4 Zcoordinate

FENESTRATIONSURFACE:DETAILED,
    Block Poly_110_Residential_1 Storey 1 Wall 0001 window,    !- Name
    Window,                   !- Surface Type
    HSCWZ_Residential_1995_Win,    !- Construction Name
    Block Poly_110_Residential_1 Storey 1 Wall 0001,    !- Building Surface Name
    ,                         !- Outside Boundary Condition Object
    autocalculate,            !- View Factor to Ground
    ,                         !- Frame and Divider Name
    1,                        !- Multiplier
    autocalculate,            !- Number of Vertices
    0.004177246,              !- Vertex 1 Xcoordinate
    14.425189911822557,       !- Vertex 1 Ycoordinate
    4.95,                     !- Vertex 1 Zcoordinate
    0.004177246,              !- Vertex 2 Xcoordinate
    14.425189911822557,       !- Vertex 2 Ycoordinate
    4.05,                     !- Vertex 2 Zcoordinate
    8.350315744095802,        !- Vertex 3 Xcoordinate
    0.007216203,              !- Vertex 3 Ycoordinate
    4.05,                     !- Vertex 3 Zcoordinate
    8.350315744095802,        !- Vertex 4 Xcoordinate
    0.007216203,              !- Vertex 4 Ycoordinate
    4.95;                     !- Vertex 4 Zcoordinate

FENESTRATIONSURFACE:DETAILED,
    Block Poly_110_Residential_1 Storey 1 Wall 0002 window,    !- Name
    Window,                   !- Surface Type
    HSCWZ_Residential_1995_Win,    !- Construction Name
    Block Poly_110_Residential_1 Storey 1 Wall 0002,    !- Building Surface Name
    ,                         !- Outside Boundary Condition Object
    autocalculate,            !- View Factor to Ground
    ,                         !- Frame and Divider Name
    1,                        !- Multiplier
    autocalculate,            !- Number of Vertices
    8.358302951512886,        !- Vertex 1 Xcoordinate
    0.002934822,              !- Vertex 1 Ycoordinate
    4.95,                     !- Vertex 1 Zcoordinate
    8.358302951512886,        !- Vertex 2 Xcoordinate
    0.002934822,              !- Vertex 2 Ycoordinate
    4.05,                     !- Vertex 2 Zcoordinate
    15.970604873248814,       !- Vertex 3 Xcoordinate
    5.866710001072381,        !- Vertex 3 Ycoordinate
    4.05,                     !- Vertex 3 Zcoordinate
    15.970604873248814,       !- Vertex 4 Xcoordinate
    5.866710001072381,        !- Vertex 4 Ycoordinate
    4.95;                     !- Vertex 4 Zcoordinate

FENESTRATIONSURFACE:DETAILED,
    Block Poly_110_Residential_1 Storey 1 Wall 0003 window,    !- Name
    Window,                   !- Surface Type
    HSCWZ_Residential_1995_Win,    !- Construction Name
    Block Poly_110_Residential_1 Storey 1 Wall 0003,    !- Building Surface Name
    ,                         !- Outside Boundary Condition Object
    autocalculate,            !- View Factor to Ground
    ,                         !- Frame and Divider Name
    1,                        !- Multiplier
    autocalculate,            !- Number of Vertices
    15.970238441934548,       !- Vertex 1 Xcoordinate
    5.876916449264158,        !- Vertex 1 Ycoordinate
    4.95,                     !- Vertex 1 Zcoordinate
    15.970238441934548,       !- Vertex 2 Xcoordinate
    5.876916449264158,        !- Vertex 2 Ycoordinate
    4.05,                     !- Vertex 2 Zcoordinate
    7.625806754296442,        !- Vertex 3 Xcoordinate
    20.405624757773708,       !- Vertex 3 Ycoordinate
    4.05,                     !- Vertex 3 Zcoordinate
    7.625806754296442,        !- Vertex 4 Xcoordinate
    20.405624757773708,       !- Vertex 4 Ycoordinate
    4.95;                     !- Vertex 4 Zcoordinate

FENESTRATIONSURFACE:DETAILED,
    Block Poly_110_Residential_1 Storey 1 Wall 0004 window,    !- Name
    Window,                   !- Surface Type
    HSCWZ_Residential_1995_Win,    !- Construction Name
    Block Poly_110_Residential_1 Storey 1 Wall 0004,    !- Building Surface Name
    ,                         !- Outside Boundary Condition Object
    autocalculate,            !- View Factor to Ground
    ,                         !- Frame and Divider Name
    1,                        !- Multiplier
    autocalculate,            !- Number of Vertices
    7.617819546879357,        !- Vertex 1 Xcoordinate
    20.409906138419405,       !- Vertex 1 Ycoordinate
    4.95,                     !- Vertex 1 Zcoordinate
    7.617819546879357,        !- Vertex 2 Xcoordinate
    20.409906138419405,       !- Vertex 2 Ycoordinate
    4.05,                     !- Vertex 2 Zcoordinate
    0.003810815,              !- Vertex 3 Xcoordinate
    14.435396360014332,       !- Vertex 3 Ycoordinate
    4.05,                     !- Vertex 3 Zcoordinate
    0.003810815,              !- Vertex 4 Xcoordinate
    14.435396360014332,       !- Vertex 4 Ycoordinate
    4.95;                     !- Vertex 4 Zcoordinate

FENESTRATIONSURFACE:DETAILED,
    Block Poly_110_Residential_1 Storey 2 Wall 0001 window,    !- Name
    Window,                   !- Surface Type
    HSCWZ_Residential_1995_Win,    !- Construction Name
    Block Poly_110_Residential_1 Storey 2 Wall 0001,    !- Building Surface Name
    ,                         !- Outside Boundary Condition Object
    autocalculate,            !- View Factor to Ground
    ,                         !- Frame and Divider Name
    1,                        !- Multiplier
    autocalculate,            !- Number of Vertices
    0.004177246,              !- Vertex 1 Xcoordinate
    14.425189911822557,       !- Vertex 1 Ycoordinate
    7.95,                     !- Vertex 1 Zcoordinate
    0.004177246,              !- Vertex 2 Xcoordinate
    14.425189911822557,       !- Vertex 2 Ycoordinate
    7.05,                     !- Vertex 2 Zcoordinate
    8.350315744095802,        !- Vertex 3 Xcoordinate
    0.007216203,              !- Vertex 3 Ycoordinate
    7.05,                     !- Vertex 3 Zcoordinate
    8.350315744095802,        !- Vertex 4 Xcoordinate
    0.007216203,              !- Vertex 4 Ycoordinate
    7.95;                     !- Vertex 4 Zcoordinate

FENESTRATIONSURFACE:DETAILED,
    Block Poly_110_Residential_1 Storey 2 Wall 0002 window,    !- Name
    Window,                   !- Surface Type
    HSCWZ_Residential_1995_Win,    !- Construction Name
    Block Poly_110_Residential_1 Storey 2 Wall 0002,    !- Building Surface Name
    ,                         !- Outside Boundary Condition Object
    autocalculate,            !- View Factor to Ground
    ,                         !- Frame and Divider Name
    1,                        !- Multiplier
    autocalculate,            !- Number of Vertices
    8.358302951512886,        !- Vertex 1 Xcoordinate
    0.002934822,              !- Vertex 1 Ycoordinate
    7.95,                     !- Vertex 1 Zcoordinate
    8.358302951512886,        !- Vertex 2 Xcoordinate
    0.002934822,              !- Vertex 2 Ycoordinate
    7.05,                     !- Vertex 2 Zcoordinate
    15.970604873248814,       !- Vertex 3 Xcoordinate
    5.866710001072381,        !- Vertex 3 Ycoordinate
    7.05,                     !- Vertex 3 Zcoordinate
    15.970604873248814,       !- Vertex 4 Xcoordinate
    5.866710001072381,        !- Vertex 4 Ycoordinate
    7.95;                     !- Vertex 4 Zcoordinate

FENESTRATIONSURFACE:DETAILED,
    Block Poly_110_Residential_1 Storey 2 Wall 0003 window,    !- Name
    Window,                   !- Surface Type
    HSCWZ_Residential_1995_Win,    !- Construction Name
    Block Poly_110_Residential_1 Storey 2 Wall 0003,    !- Building Surface Name
    ,                         !- Outside Boundary Condition Object
    autocalculate,            !- View Factor to Ground
    ,                         !- Frame and Divider Name
    1,                        !- Multiplier
    autocalculate,            !- Number of Vertices
    15.970238441934548,       !- Vertex 1 Xcoordinate
    5.876916449264158,        !- Vertex 1 Ycoordinate
    7.95,                     !- Vertex 1 Zcoordinate
    15.970238441934548,       !- Vertex 2 Xcoordinate
    5.876916449264158,        !- Vertex 2 Ycoordinate
    7.05,                     !- Vertex 2 Zcoordinate
    7.625806754296442,        !- Vertex 3 Xcoordinate
    20.405624757773708,       !- Vertex 3 Ycoordinate
    7.05,                     !- Vertex 3 Zcoordinate
    7.625806754296442,        !- Vertex 4 Xcoordinate
    20.405624757773708,       !- Vertex 4 Ycoordinate
    7.95;                     !- Vertex 4 Zcoordinate

FENESTRATIONSURFACE:DETAILED,
    Block Poly_110_Residential_1 Storey 2 Wall 0004 window,    !- Name
    Window,                   !- Surface Type
    HSCWZ_Residential_1995_Win,    !- Construction Name
    Block Poly_110_Residential_1 Storey 2 Wall 0004,    !- Building Surface Name
    ,                         !- Outside Boundary Condition Object
    autocalculate,            !- View Factor to Ground
    ,                         !- Frame and Divider Name
    1,                        !- Multiplier
    autocalculate,            !- Number of Vertices
    7.617819546879357,        !- Vertex 1 Xcoordinate
    20.409906138419405,       !- Vertex 1 Ycoordinate
    7.95,                     !- Vertex 1 Zcoordinate
    7.617819546879357,        !- Vertex 2 Xcoordinate
    20.409906138419405,       !- Vertex 2 Ycoordinate
    7.05,                     !- Vertex 2 Zcoordinate
    0.003810815,              !- Vertex 3 Xcoordinate
    14.435396360014332,       !- Vertex 3 Ycoordinate
    7.05,                     !- Vertex 3 Zcoordinate
    0.003810815,              !- Vertex 4 Xcoordinate
    14.435396360014332,       !- Vertex 4 Ycoordinate
    7.95;                     !- Vertex 4 Zcoordinate

PEOPLE,
    People_Block Poly_110_Residential_1 Storey 0,    !- Name
    Block Poly_110_Residential_1 Storey 0,    !- Zone or ZoneList or Space or SpaceList Name
    People_Schedule,          !- Number of People Schedule Name
    Area/Person,              !- Number of People Calculation Method
    ,                         !- Number of People
    ,                         !- People per Floor Area
    18,                       !- Floor Area per Person
    0.3,                      !- Fraction Radiant
    autocalculate,            !- Sensible Heat Fraction
    CN_GenericActivityLevel,    !- Activity Level Schedule Name
    3.82e-08,                 !- Carbon Dioxide Generation Rate
    No,                       !- Enable ASHRAE 55 Comfort Warnings
    ZoneAveraged,             !- Mean Radiant Temperature Calculation Type
    ,                         !- Surface NameAngle Factor List Name
    ,                         !- Work Efficiency Schedule Name
    ClothingInsulationSchedule,    !- Clothing Insulation Calculation Method
    ,                         !- Clothing Insulation Calculation Method Schedule Name
    ,                         !- Clothing Insulation Schedule Name
    ,                         !- Air Velocity Schedule Name
    ,                         !- Thermal Comfort Model 1 Type
    ,                         !- Thermal Comfort Model 2 Type
    ,                         !- Thermal Comfort Model 3 Type
    ,                         !- Thermal Comfort Model 4 Type
    ,                         !- Thermal Comfort Model 5 Type
    ,                         !- Thermal Comfort Model 6 Type
    ,                         !- Thermal Comfort Model 7 Type
    ,                         !- Ankle Level Air Velocity Schedule Name
    15.56,                    !- Cold Stress Temperature Threshold
    30;                       !- Heat Stress Temperature Threshold

PEOPLE,
    People_Block Poly_110_Residential_1 Storey 1,    !- Name
    Block Poly_110_Residential_1 Storey 1,    !- Zone or ZoneList or Space or SpaceList Name
    People_Schedule,          !- Number of People Schedule Name
    Area/Person,              !- Number of People Calculation Method
    ,                         !- Number of People
    ,                         !- People per Floor Area
    18,                       !- Floor Area per Person
    0.3,                      !- Fraction Radiant
    autocalculate,            !- Sensible Heat Fraction
    CN_GenericActivityLevel,    !- Activity Level Schedule Name
    3.82e-08,                 !- Carbon Dioxide Generation Rate
    No,                       !- Enable ASHRAE 55 Comfort Warnings
    ZoneAveraged,             !- Mean Radiant Temperature Calculation Type
    ,                         !- Surface NameAngle Factor List Name
    ,                         !- Work Efficiency Schedule Name
    ClothingInsulationSchedule,    !- Clothing Insulation Calculation Method
    ,                         !- Clothing Insulation Calculation Method Schedule Name
    ,                         !- Clothing Insulation Schedule Name
    ,                         !- Air Velocity Schedule Name
    ,                         !- Thermal Comfort Model 1 Type
    ,                         !- Thermal Comfort Model 2 Type
    ,                         !- Thermal Comfort Model 3 Type
    ,                         !- Thermal Comfort Model 4 Type
    ,                         !- Thermal Comfort Model 5 Type
    ,                         !- Thermal Comfort Model 6 Type
    ,                         !- Thermal Comfort Model 7 Type
    ,                         !- Ankle Level Air Velocity Schedule Name
    15.56,                    !- Cold Stress Temperature Threshold
    30;                       !- Heat Stress Temperature Threshold

PEOPLE,
    People_Block Poly_110_Residential_1 Storey 2,    !- Name
    Block Poly_110_Residential_1 Storey 2,    !- Zone or ZoneList or Space or SpaceList Name
    People_Schedule,          !- Number of People Schedule Name
    Area/Person,              !- Number of People Calculation Method
    ,                         !- Number of People
    ,                         !- People per Floor Area
    18,                       !- Floor Area per Person
    0.3,                      !- Fraction Radiant
    autocalculate,            !- Sensible Heat Fraction
    CN_GenericActivityLevel,    !- Activity Level Schedule Name
    3.82e-08,                 !- Carbon Dioxide Generation Rate
    No,                       !- Enable ASHRAE 55 Comfort Warnings
    ZoneAveraged,             !- Mean Radiant Temperature Calculation Type
    ,                         !- Surface NameAngle Factor List Name
    ,                         !- Work Efficiency Schedule Name
    ClothingInsulationSchedule,    !- Clothing Insulation Calculation Method
    ,                         !- Clothing Insulation Calculation Method Schedule Name
    ,                         !- Clothing Insulation Schedule Name
    ,                         !- Air Velocity Schedule Name
    ,                         !- Thermal Comfort Model 1 Type
    ,                         !- Thermal Comfort Model 2 Type
    ,                         !- Thermal Comfort Model 3 Type
    ,                         !- Thermal Comfort Model 4 Type
    ,                         !- Thermal Comfort Model 5 Type
    ,                         !- Thermal Comfort Model 6 Type
    ,                         !- Thermal Comfort Model 7 Type
    ,                         !- Ankle Level Air Velocity Schedule Name
    15.56,                    !- Cold Stress Temperature Threshold
    30;                       !- Heat Stress Temperature Threshold

LIGHTS,
    Lights_Block Poly_110_Residential_1 Storey 0,    !- Name
    Block Poly_110_Residential_1 Storey 0,    !- Zone or ZoneList or Space or SpaceList Name
    Lights_Schedule,          !- Schedule Name
    Watts/Area,               !- Design Level Calculation Method
    ,                         !- Lighting Level
    7,                        !- Watts per Zone Floor Area
    ,                         !- Watts per Person
    0,                        !- Return Air Fraction
    0,                        !- Fraction Radiant
    0,                        !- Fraction Visible
    1,                        !- Fraction Replaceable
    General,                  !- EndUse Subcategory
    No,                       !- Return Air Fraction Calculated from Plenum Temperature
    0,                        !- Return Air Fraction Function of Plenum Temperature Coefficient 1
    0;                        !- Return Air Fraction Function of Plenum Temperature Coefficient 2

LIGHTS,
    Lights_Block Poly_110_Residential_1 Storey 1,    !- Name
    Block Poly_110_Residential_1 Storey 1,    !- Zone or ZoneList or Space or SpaceList Name
    Lights_Schedule,          !- Schedule Name
    Watts/Area,               !- Design Level Calculation Method
    ,                         !- Lighting Level
    7,                        !- Watts per Zone Floor Area
    ,                         !- Watts per Person
    0,                        !- Return Air Fraction
    0,                        !- Fraction Radiant
    0,                        !- Fraction Visible
    1,                        !- Fraction Replaceable
    General,                  !- EndUse Subcategory
    No,                       !- Return Air Fraction Calculated from Plenum Temperature
    0,                        !- Return Air Fraction Function of Plenum Temperature Coefficient 1
    0;                        !- Return Air Fraction Function of Plenum Temperature Coefficient 2

LIGHTS,
    Lights_Block Poly_110_Residential_1 Storey 2,    !- Name
    Block Poly_110_Residential_1 Storey 2,    !- Zone or ZoneList or Space or SpaceList Name
    Lights_Schedule,          !- Schedule Name
    Watts/Area,               !- Design Level Calculation Method
    ,                         !- Lighting Level
    7,                        !- Watts per Zone Floor Area
    ,                         !- Watts per Person
    0,                        !- Return Air Fraction
    0,                        !- Fraction Radiant
    0,                        !- Fraction Visible
    1,                        !- Fraction Replaceable
    General,                  !- EndUse Subcategory
    No,                       !- Return Air Fraction Calculated from Plenum Temperature
    0,                        !- Return Air Fraction Function of Plenum Temperature Coefficient 1
    0;                        !- Return Air Fraction Function of Plenum Temperature Coefficient 2

ELECTRICEQUIPMENT,
    ElectricEquipment_Block Poly_110_Residential_1 Storey 0,    !- Name
    Block Poly_110_Residential_1 Storey 0,    !- Zone or ZoneList or Space or SpaceList Name
    ElectricEquipment_Schedule,    !- Schedule Name
    Watts/Area,               !- Design Level Calculation Method
    ,                         !- Design Level
    5.5,                      !- Watts per Zone Floor Area
    ,                         !- Watts per Person
    0,                        !- Fraction Latent
    0,                        !- Fraction Radiant
    0,                        !- Fraction Lost
    General;                  !- EndUse Subcategory

ELECTRICEQUIPMENT,
    ElectricEquipment_Block Poly_110_Residential_1 Storey 1,    !- Name
    Block Poly_110_Residential_1 Storey 1,    !- Zone or ZoneList or Space or SpaceList Name
    ElectricEquipment_Schedule,    !- Schedule Name
    Watts/Area,               !- Design Level Calculation Method
    ,                         !- Design Level
    5.5,                      !- Watts per Zone Floor Area
    ,                         !- Watts per Person
    0,                        !- Fraction Latent
    0,                        !- Fraction Radiant
    0,                        !- Fraction Lost
    General;                  !- EndUse Subcategory

ELECTRICEQUIPMENT,
    ElectricEquipment_Block Poly_110_Residential_1 Storey 2,    !- Name
    Block Poly_110_Residential_1 Storey 2,    !- Zone or ZoneList or Space or SpaceList Name
    ElectricEquipment_Schedule,    !- Schedule Name
    Watts/Area,               !- Design Level Calculation Method
    ,                         !- Design Level
    5.5,                      !- Watts per Zone Floor Area
    ,                         !- Watts per Person
    0,                        !- Fraction Latent
    0,                        !- Fraction Radiant
    0,                        !- Fraction Lost
    General;                  !- EndUse Subcategory

ZONEINFILTRATION:DESIGNFLOWRATE,
    Infil 1,                  !- Name
    Block Poly_110_Residential_1 Storey 0,    !- Zone or ZoneList or Space or SpaceList Name
    AirEx_ConditionedTime_Schedule,    !- Schedule Name
    AirChanges/Hour,          !- Design Flow Rate Calculation Method
    ,                         !- Design Flow Rate
    ,                         !- Flow Rate per Floor Area
    ,                         !- Flow Rate per Exterior Surface Area
    1,                        !- Air Changes per Hour
    1,                        !- Constant Term Coefficient
    0,                        !- Temperature Term Coefficient
    0,                        !- Velocity Term Coefficient
    0;                        !- Velocity Squared Term Coefficient

ZONEINFILTRATION:DESIGNFLOWRATE,
    Infil 2,                  !- Name
    Block Poly_110_Residential_1 Storey 1,    !- Zone or ZoneList or Space or SpaceList Name
    AirEx_ConditionedTime_Schedule,    !- Schedule Name
    AirChanges/Hour,          !- Design Flow Rate Calculation Method
    ,                         !- Design Flow Rate
    ,                         !- Flow Rate per Floor Area
    ,                         !- Flow Rate per Exterior Surface Area
    1,                        !- Air Changes per Hour
    1,                        !- Constant Term Coefficient
    0,                        !- Temperature Term Coefficient
    0,                        !- Velocity Term Coefficient
    0;                        !- Velocity Squared Term Coefficient

ZONEINFILTRATION:DESIGNFLOWRATE,
    Infil 3,                  !- Name
    Block Poly_110_Residential_1 Storey 2,    !- Zone or ZoneList or Space or SpaceList Name
    AirEx_ConditionedTime_Schedule,    !- Schedule Name
    AirChanges/Hour,          !- Design Flow Rate Calculation Method
    ,                         !- Design Flow Rate
    ,                         !- Flow Rate per Floor Area
    ,                         !- Flow Rate per Exterior Surface Area
    1,                        !- Air Changes per Hour
    1,                        !- Constant Term Coefficient
    0,                        !- Temperature Term Coefficient
    0,                        !- Velocity Term Coefficient
    0;                        !- Velocity Squared Term Coefficient

HVACTEMPLATE:THERMOSTAT,
    HVACTemp,                 !- Name
    Heating_SP_Schedule,      !- Heating Setpoint Schedule Name
    ,                         !- Constant Heating Setpoint
    Cooling_SP_Schedule;      !- Cooling Setpoint Schedule Name

HVACTEMPLATE:ZONE:IDEALLOADSAIRSYSTEM,
    Block Poly_110_Residential_1 Storey 0,    !- Zone Name
    HVACTemp,                 !- Template Thermostat Name
    HVAC_ConditionedTime_Schedule,    !- System Availability Schedule Name
    50,                       !- Maximum Heating Supply Air Temperature
    13,                       !- Minimum Cooling Supply Air Temperature
    0.0156,                   !- Maximum Heating Supply Air Humidity Ratio
    0.0077,                   !- Minimum Cooling Supply Air Humidity Ratio
    NoLimit,                  !- Heating Limit
    ,                         !- Maximum Heating Air Flow Rate
    ,                         !- Maximum Sensible Heating Capacity
    NoLimit,                  !- Cooling Limit
    ,                         !- Maximum Cooling Air Flow Rate
    ,                         !- Maximum Total Cooling Capacity
    Heating_Period_Schedule,    !- Heating Availability Schedule Name
    Cooling_Period_Schedule,    !- Cooling Availability Schedule Name
    ConstantSensibleHeatRatio,    !- Dehumidification Control Type
    0.7,                      !- Cooling Sensible Heat Ratio
    60,                       !- Dehumidification Setpoint
    None,                     !- Humidification Control Type
    30,                       !- Humidification Setpoint
    None,                     !- Outdoor Air Method
    0.00944,                  !- Outdoor Air Flow Rate per Person
    0,                        !- Outdoor Air Flow Rate per Zone Floor Area
    0,                        !- Outdoor Air Flow Rate per Zone
    ,                         !- Design Specification Outdoor Air Object Name
    None,                     !- Demand Controlled Ventilation Type
    NoEconomizer,             !- Outdoor Air Economizer Type
    None,                     !- Heat Recovery Type
    0.7,                      !- Sensible Heat Recovery Effectiveness
    0.65;                     !- Latent Heat Recovery Effectiveness

HVACTEMPLATE:ZONE:IDEALLOADSAIRSYSTEM,
    Block Poly_110_Residential_1 Storey 1,    !- Zone Name
    HVACTemp,                 !- Template Thermostat Name
    HVAC_ConditionedTime_Schedule,    !- System Availability Schedule Name
    50,                       !- Maximum Heating Supply Air Temperature
    13,                       !- Minimum Cooling Supply Air Temperature
    0.0156,                   !- Maximum Heating Supply Air Humidity Ratio
    0.0077,                   !- Minimum Cooling Supply Air Humidity Ratio
    NoLimit,                  !- Heating Limit
    ,                         !- Maximum Heating Air Flow Rate
    ,                         !- Maximum Sensible Heating Capacity
    NoLimit,                  !- Cooling Limit
    ,                         !- Maximum Cooling Air Flow Rate
    ,                         !- Maximum Total Cooling Capacity
    Heating_Period_Schedule,    !- Heating Availability Schedule Name
    Cooling_Period_Schedule,    !- Cooling Availability Schedule Name
    ConstantSensibleHeatRatio,    !- Dehumidification Control Type
    0.7,                      !- Cooling Sensible Heat Ratio
    60,                       !- Dehumidification Setpoint
    None,                     !- Humidification Control Type
    30,                       !- Humidification Setpoint
    None,                     !- Outdoor Air Method
    0.00944,                  !- Outdoor Air Flow Rate per Person
    0,                        !- Outdoor Air Flow Rate per Zone Floor Area
    0,                        !- Outdoor Air Flow Rate per Zone
    ,                         !- Design Specification Outdoor Air Object Name
    None,                     !- Demand Controlled Ventilation Type
    NoEconomizer,             !- Outdoor Air Economizer Type
    None,                     !- Heat Recovery Type
    0.7,                      !- Sensible Heat Recovery Effectiveness
    0.65;                     !- Latent Heat Recovery Effectiveness

HVACTEMPLATE:ZONE:IDEALLOADSAIRSYSTEM,
    Block Poly_110_Residential_1 Storey 2,    !- Zone Name
    HVACTemp,                 !- Template Thermostat Name
    HVAC_ConditionedTime_Schedule,    !- System Availability Schedule Name
    50,                       !- Maximum Heating Supply Air Temperature
    13,                       !- Minimum Cooling Supply Air Temperature
    0.0156,                   !- Maximum Heating Supply Air Humidity Ratio
    0.0077,                   !- Minimum Cooling Supply Air Humidity Ratio
    NoLimit,                  !- Heating Limit
    ,                         !- Maximum Heating Air Flow Rate
    ,                         !- Maximum Sensible Heating Capacity
    NoLimit,                  !- Cooling Limit
    ,                         !- Maximum Cooling Air Flow Rate
    ,                         !- Maximum Total Cooling Capacity
    Heating_Period_Schedule,    !- Heating Availability Schedule Name
    Cooling_Period_Schedule,    !- Cooling Availability Schedule Name
    ConstantSensibleHeatRatio,    !- Dehumidification Control Type
    0.7,                      !- Cooling Sensible Heat Ratio
    60,                       !- Dehumidification Setpoint
    None,                     !- Humidification Control Type
    30,                       !- Humidification Setpoint
    None,                     !- Outdoor Air Method
    0.00944,                  !- Outdoor Air Flow Rate per Person
    0,                        !- Outdoor Air Flow Rate per Zone Floor Area
    0,                        !- Outdoor Air Flow Rate per Zone
    ,                         !- Design Specification Outdoor Air Object Name
    None,                     !- Demand Controlled Ventilation Type
    NoEconomizer,             !- Outdoor Air Economizer Type
    None,                     !- Heat Recovery Type
    0.7,                      !- Sensible Heat Recovery Effectiveness
    0.65;                     !- Latent Heat Recovery Effectiveness

OUTPUT:VARIABLEDICTIONARY,
    regular,                  !- Key Field
    Unsorted;                 !- Sort Option

OUTPUT:CONSTRUCTIONS,
    Constructions,            !- Details Type 1
    Constructions;            !- Details Type 2

OUTPUT:TABLE:SUMMARYREPORTS,
    AllSummary;               !- Report 1 Name

OUTPUTCONTROL:TABLE:STYLE,
    Comma,                    !- Column Separator
    JtoKWH;                   !- Unit Conversion

OUTPUT:VARIABLE,
    *,                        !- Key Value
    Zone Ideal Loads Supply Air Total Heating Rate,    !- Variable Name
    Hourly;                   !- Reporting Frequency

OUTPUT:VARIABLE,
    *,                        !- Key Value
    Zone Ideal Loads Supply Air Total Cooling Rate,    !- Variable Name
    Hourly;                   !- Reporting Frequency

OUTPUT:VARIABLE,
    *,                        !- Key Value
    Zone Ideal Loads Zone Total Heating Rate,    !- Variable Name
    Hourly;                   !- Reporting Frequency

OUTPUT:VARIABLE,
    *,                        !- Key Value
    Zone Ideal Loads Zone Total Cooling Rate,    !- Variable Name
    Hourly;                   !- Reporting Frequency

OUTPUT:VARIABLE,
    *,                        !- Key Value
    Zone Air Temperature,     !- Variable Name
    Hourly;                   !- Reporting Frequency

OUTPUT:METER:METERFILEONLY,
    DistrictCooling:Facility,    !- Key Name
    Hourly;                   !- Reporting Frequency

OUTPUT:METER:METERFILEONLY,
    DistrictHeatingWater:Facility,    !- Key Name
    Hourly;                   !- Reporting Frequency

OUTPUT:METER:METERFILEONLY,
    Electricity:Facility,     !- Key Name
    Hourly;                   !- Reporting Frequency

OUTPUT:METER:METERFILEONLY,
    Electricity:Building,     !- Key Name
    Hourly;                   !- Reporting Frequency

OUTPUT:SQLITE,
    SimpleAndTabular,         !- Option Type
    UseOutputControlTableStyle;    !- Unit Conversion for Tabular Data