!- Windows Line endings 

VERSION,
    23.2.0;                   !- Version Identifier

SIMULATIONCONTROL,
    Yes,                      !- Do Zone Sizing Calculation
    Yes,                      !- Do System Sizing Calculation
    No,                       !- Do Plant Sizing Calculation
    No,                       !- Run Simulation for Sizing Periods
    Yes,                      !- Run Simulation for Weather File Run Periods
    No,                       !- Do HVAC Sizing Simulation for Sizing Periods
    1;                        !- Maximum Number of HVAC Sizing Simulation Passes

BUILDING,
    shang4hai3shi4_Transport_6_5_2015,    !- Name
    0,                        !- North Axis
    City,                     !- Terrain
    0.04,                     !- Loads Convergence Tolerance Value
    0.4,                      !- Temperature Convergence Tolerance Value
    FullExterior,             !- Solar Distribution
    25,                       !- Maximum Number of Warmup Days
    1;                        !- Minimum Number of Warmup Days

SHADOWCALCULATION,
    PolygonClipping,          !- Shading Calculation Method
    Periodic,                 !- Shading Calculation Update Frequency Method
    20,                       !- Shading Calculation Update Frequency
    15000,                    !- Maximum Figures in Shadow Overlap Calculations
    SutherlandHodgman,        !- Polygon Clipping Algorithm
    512,                      !- Pixel Counting Resolution
    SimpleSkyDiffuseModeling,    !- Sky Diffuse Modeling Algorithm
    No,                       !- Output External Shading Calculation Results
    No,                       !- Disable SelfShading Within Shading Zone Groups
    No;                       !- Disable SelfShading From Shading Zone Groups to Other Zones

HEATBALANCEALGORITHM,
    ConductionTransferFunction,    !- Algorithm
    200,                      !- Surface Temperature Upper Limit
    ,                         !- Minimum Surface Convection Heat Transfer Coefficient Value
    ;                         !- Maximum Surface Convection Heat Transfer Coefficient Value

TIMESTEP,
    1;                        !- Number of Timesteps per Hour

CONVERGENCELIMITS,
    1,                        !- Minimum System Timestep
    20,                       !- Maximum HVAC Iterations
    2,                        !- Minimum Plant Iterations
    8;                        !- Maximum Plant Iterations

RUNPERIOD,
    Run_Period_1,             !- Name
    1,                        !- Begin Month
    1,                        !- Begin Day of Month
    ,                         !- Begin Year
    12,                       !- End Month
    31,                       !- End Day of Month
    ,                         !- End Year
    ,                         !- Day of Week for Start Day
    Yes,                      !- Use Weather File Holidays and Special Days
    Yes,                      !- Use Weather File Daylight Saving Period
    No,                       !- Apply Weekend Holiday Rule
    Yes,                      !- Use Weather File Rain Indicators
    Yes,                      !- Use Weather File Snow Indicators
    ,                         !- Treat Weather as Actual
    ;                         !- First Hour Interpolation Starting Values

SCHEDULETYPELIMITS,
    Fraction,                 !- Name
    0,                        !- Lower Limit Value
    1,                        !- Upper Limit Value
    Continuous,               !- Numeric Type
    ;                         !- Unit Type

SCHEDULETYPELIMITS,
    Temperature,              !- Name
    ,                         !- Lower Limit Value
    ,                         !- Upper Limit Value
    Continuous,               !- Numeric Type
    Temperature;              !- Unit Type

SCHEDULETYPELIMITS,
    Any Number,               !- Name
    ,                         !- Lower Limit Value
    ,                         !- Upper Limit Value
    Continuous,               !- Numeric Type
    Dimensionless;            !- Unit Type

SCHEDULETYPELIMITS,
    On/Off,                   !- Name
    ,                         !- Lower Limit Value
    ,                         !- Upper Limit Value
    ,                         !- Numeric Type
    Dimensionless;            !- Unit Type

SCHEDULE:COMPACT,
    People_Schedule,          !- Name
    Fraction,                 !- Schedule Type Limits Name
    Through: 12/31,           !- Field 1
    For: Weekdays,            !- Field 2
    Until: 05:00,             !- Field 3
    0.1,                      !- Field 4
    Until: 07:00,             !- Field 5
    0.4,                      !- Field 6
    Until: 09:00,             !- Field 7
    0.75,                     !- Field 8
    Until: 12:00,             !- Field 9
    0.6,                      !- Field 10
    Until: 15:00,             !- Field 11
    0.65,                     !- Field 12
    Until: 18:00,             !- Field 13
    0.7,                      !- Field 14
    Until: 21:00,             !- Field 15
    0.8,                      !- Field 16
    Until: 24:00,             !- Field 17
    0.25,                     !- Field 18
    For: AllOtherDays,        !- Field 19
    Until: 05:00,             !- Field 20
    0.15,                     !- Field 21
    Until: 07:00,             !- Field 22
    0.5,                      !- Field 23
    Until: 09:00,             !- Field 24
    0.85,                     !- Field 25
    Until: 12:00,             !- Field 26
    0.8,                      !- Field 27
    Until: 15:00,             !- Field 28
    0.9,                      !- Field 29
    Until: 18:00,             !- Field 30
    0.95,                     !- Field 31
    Until: 21:00,             !- Field 32
    0.95,                     !- Field 33
    Until: 24:00,             !- Field 34
    0.5;                      !- Field 35

SCHEDULE:COMPACT,
    Lights_Schedule,          !- Name
    Fraction,                 !- Schedule Type Limits Name
    Through: 12/31,           !- Field 1
    For: Weekdays,            !- Field 2
    Until: 05:00,             !- Field 3
    0.1,                      !- Field 4
    Until: 07:00,             !- Field 5
    0.45,                     !- Field 6
    Until: 09:00,             !- Field 7
    0.85,                     !- Field 8
    Until: 12:00,             !- Field 9
    0.75,                     !- Field 10
    Until: 14:00,             !- Field 11
    0.8,                      !- Field 12
    Until: 17:00,             !- Field 13
    0.65,                     !- Field 14
    Until: 20:00,             !- Field 15
    0.9,                      !- Field 16
    Until: 22:00,             !- Field 17
    0.6,                      !- Field 18
    Until: 24:00,             !- Field 19
    0.25,                     !- Field 20
    For: AllOtherDays,        !- Field 21
    Until: 24:00,             !- Field 22
    0.7;                      !- Field 23

SCHEDULE:COMPACT,
    ElectricEquipment_Schedule,    !- Name
    Fraction,                 !- Schedule Type Limits Name
    Through: 12/31,           !- Field 1
    For: Weekdays,            !- Field 2
    Until: 05:00,             !- Field 3
    0.15,                     !- Field 4
    Until: 07:00,             !- Field 5
    0.45,                     !- Field 6
    Until: 09:00,             !- Field 7
    0.85,                     !- Field 8
    Until: 12:00,             !- Field 9
    0.75,                     !- Field 10
    Until: 14:00,             !- Field 11
    0.8,                      !- Field 12
    Until: 17:00,             !- Field 13
    0.65,                     !- Field 14
    Until: 20:00,             !- Field 15
    0.9,                      !- Field 16
    Until: 22:00,             !- Field 17
    0.6,                      !- Field 18
    Until: 24:00,             !- Field 19
    0.25,                     !- Field 20
    For: AllOtherDays,        !- Field 21
    Until: 24:00,             !- Field 22
    0.7;                      !- Field 23

SCHEDULE:COMPACT,
    Heating_SP_Schedule,      !- Name
    Temperature,              !- Schedule Type Limits Name
    Through: 12/31,           !- Field 1
    For: AllDays,             !- Field 2
    Until: 05:00,             !- Field 3
    5,                        !- Field 4
    Until: 06:00,             !- Field 5
    12,                       !- Field 6
    Until: 22:00,             !- Field 7
    18,                       !- Field 8
    Until: 24:00,             !- Field 9
    12;                       !- Field 10

SCHEDULE:COMPACT,
    Cooling_SP_Schedule,      !- Name
    Temperature,              !- Schedule Type Limits Name
    Through: 12/31,           !- Field 1
    For: AllDays,             !- Field 2
    Until: 05:00,             !- Field 3
    37,                       !- Field 4
    Until: 06:00,             !- Field 5
    28,                       !- Field 6
    Until: 22:00,             !- Field 7
    25,                       !- Field 8
    Until: 24:00,             !- Field 9
    28;                       !- Field 10

SCHEDULE:COMPACT,
    Heating_Period_Schedule,    !- Name
    On/Off,                   !- Schedule Type Limits Name
    Through: 04/15,           !- Field 1
    For: AllDays,             !- Field 2
    Until: 24:00,             !- Field 3
    1,                        !- Field 4
    Through: 11/01,           !- Field 5
    For: AllDays,             !- Field 6
    Until: 24:00,             !- Field 7
    0,                        !- Field 8
    Through: 12/31,           !- Field 9
    For: AllDays,             !- Field 10
    Until: 24:00,             !- Field 11
    1;                        !- Field 12

SCHEDULE:COMPACT,
    Cooling_Period_Schedule,    !- Name
    On/Off,                   !- Schedule Type Limits Name
    Through: 04/15,           !- Field 1
    For: AllDays,             !- Field 2
    Until: 24:00,             !- Field 3
    0,                        !- Field 4
    Through: 10/31,           !- Field 5
    For: AllDays,             !- Field 6
    Until: 24:00,             !- Field 7
    1,                        !- Field 8
    Through: 12/31,           !- Field 9
    For: AllDays,             !- Field 10
    Until: 24:00,             !- Field 11
    0;                        !- Field 12

SCHEDULE:COMPACT,
    HVAC_ConditionedTime_Schedule,    !- Name
    On/Off,                   !- Schedule Type Limits Name
    Through: 12/31,           !- Field 1
    For: AllDays,             !- Field 2
    Until: 01:00,             !- Field 3
    1,                        !- Field 4
    Until: 05:00,             !- Field 5
    0,                        !- Field 6
    Until: 24:00,             !- Field 7
    1;                        !- Field 8

SCHEDULE:COMPACT,
    AirEx_ConditionedTime_Schedule,    !- Name
    Any Number,               !- Schedule Type Limits Name
    Through: 12/31,           !- Field 1
    For: AllDays,             !- Field 2
    Until: 01:00,             !- Field 3
    3,                        !- Field 4
    Until: 05:00,             !- Field 5
    0,                        !- Field 6
    Until: 24:00,             !- Field 7
    4;                        !- Field 8

SCHEDULE:COMPACT,
    CN_GenericActivityLevel,    !- Name
    Any Number,               !- Schedule Type Limits Name
    Through: 12/31,           !- Field 1
    For: Weekdays,            !- Field 2
    Until: 08:00,             !- Field 3
    80,                       !- Field 4
    Until: 18:00,             !- Field 5
    120,                      !- Field 6
    Until: 24:00,             !- Field 7
    80,                       !- Field 8
    For: AllOtherDays,        !- Field 9
    Until: 24:00,             !- Field 10
    80;                       !- Field 11

MATERIAL,
    Concrete,                 !- Name
    MediumRough,              !- Roughness
    0.1,                      !- Thickness
    1.7,                      !- Conductivity
    2240,                     !- Density
    900,                      !- Specific Heat
    0.9,                      !- Thermal Absorptance
    0.7,                      !- Solar Absorptance
    0.7;                      !- Visible Absorptance

MATERIAL,
    Brick,                    !- Name
    MediumRough,              !- Roughness
    0.1,                      !- Thickness
    0.72,                     !- Conductivity
    1920,                     !- Density
    840,                      !- Specific Heat
    0.9,                      !- Thermal Absorptance
    0.7,                      !- Solar Absorptance
    0.7;                      !- Visible Absorptance

MATERIAL,
    Tile,                     !- Name
    Smooth,                   !- Roughness
    0.02,                     !- Thickness
    1.3,                      !- Conductivity
    2200,                     !- Density
    900,                      !- Specific Heat
    0.9,                      !- Thermal Absorptance
    0.7,                      !- Solar Absorptance
    0.7;                      !- Visible Absorptance

MATERIAL,
    Gypsum,                   !- Name
    Smooth,                   !- Roughness
    0.015,                    !- Thickness
    0.16,                     !- Conductivity
    800,                      !- Density
    1090,                     !- Specific Heat
    0.9,                      !- Thermal Absorptance
    0.7,                      !- Solar Absorptance
    0.7;                      !- Visible Absorptance

MATERIAL,
    AsphaltFelt,              !- Name
    Smooth,                   !- Roughness
    0.01,                     !- Thickness
    0.2,                      !- Conductivity
    960,                      !- Density
    1000,                     !- Specific Heat
    0.9,                      !- Thermal Absorptance
    0.7,                      !- Solar Absorptance
    0.7;                      !- Visible Absorptance

MATERIAL,
    Insulation 0.003,         !- Name
    Rough,                    !- Roughness
    0.003,                    !- Thickness
    0.04,                     !- Conductivity
    40,                       !- Density
    1500,                     !- Specific Heat
    0.9,                      !- Thermal Absorptance
    0.7,                      !- Solar Absorptance
    0.7;                      !- Visible Absorptance

MATERIAL,
    Insulation 0.004,         !- Name
    Rough,                    !- Roughness
    0.004,                    !- Thickness
    0.04,                     !- Conductivity
    40,                       !- Density
    1500,                     !- Specific Heat
    0.9,                      !- Thermal Absorptance
    0.7,                      !- Solar Absorptance
    0.7;                      !- Visible Absorptance

MATERIAL,
    Insulation 0.007,         !- Name
    Rough,                    !- Roughness
    0.007,                    !- Thickness
    0.04,                     !- Conductivity
    40,                       !- Density
    1500,                     !- Specific Heat
    0.9,                      !- Thermal Absorptance
    0.7,                      !- Solar Absorptance
    0.7;                      !- Visible Absorptance

MATERIAL,
    Insulation 0.011,         !- Name
    Rough,                    !- Roughness
    0.011,                    !- Thickness
    0.04,                     !- Conductivity
    40,                       !- Density
    1500,                     !- Specific Heat
    0.9,                      !- Thermal Absorptance
    0.7,                      !- Solar Absorptance
    0.7;                      !- Visible Absorptance

MATERIAL,
    Insulation 0.012,         !- Name
    Rough,                    !- Roughness
    0.012,                    !- Thickness
    0.04,                     !- Conductivity
    40,                       !- Density
    1500,                     !- Specific Heat
    0.9,                      !- Thermal Absorptance
    0.7,                      !- Solar Absorptance
    0.7;                      !- Visible Absorptance

MATERIAL,
    Insulation 0.013,         !- Name
    Rough,                    !- Roughness
    0.013,                    !- Thickness
    0.04,                     !- Conductivity
    40,                       !- Density
    1500,                     !- Specific Heat
    0.9,                      !- Thermal Absorptance
    0.7,                      !- Solar Absorptance
    0.7;                      !- Visible Absorptance

MATERIAL,
    Insulation 0.014,         !- Name
    Rough,                    !- Roughness
    0.014,                    !- Thickness
    0.04,                     !- Conductivity
    40,                       !- Density
    1500,                     !- Specific Heat
    0.9,                      !- Thermal Absorptance
    0.7,                      !- Solar Absorptance
    0.7;                      !- Visible Absorptance

MATERIAL,
    Insulation 0.016,         !- Name
    Rough,                    !- Roughness
    0.016,                    !- Thickness
    0.04,                     !- Conductivity
    40,                       !- Density
    1500,                     !- Specific Heat
    0.9,                      !- Thermal Absorptance
    0.7,                      !- Solar Absorptance
    0.7;                      !- Visible Absorptance

MATERIAL,
    Insulation 0.017,         !- Name
    Rough,                    !- Roughness
    0.017,                    !- Thickness
    0.04,                     !- Conductivity
    40,                       !- Density
    1500,                     !- Specific Heat
    0.9,                      !- Thermal Absorptance
    0.7,                      !- Solar Absorptance
    0.7;                      !- Visible Absorptance

MATERIAL,
    Insulation 0.018,         !- Name
    Rough,                    !- Roughness
    0.018,                    !- Thickness
    0.04,                     !- Conductivity
    40,                       !- Density
    1500,                     !- Specific Heat
    0.9,                      !- Thermal Absorptance
    0.7,                      !- Solar Absorptance
    0.7;                      !- Visible Absorptance

MATERIAL,
    Insulation 0.021,         !- Name
    Rough,                    !- Roughness
    0.021,                    !- Thickness
    0.04,                     !- Conductivity
    40,                       !- Density
    1500,                     !- Specific Heat
    0.9,                      !- Thermal Absorptance
    0.7,                      !- Solar Absorptance
    0.7;                      !- Visible Absorptance

MATERIAL,
    Insulation 0.022,         !- Name
    Rough,                    !- Roughness
    0.022,                    !- Thickness
    0.04,                     !- Conductivity
    40,                       !- Density
    1500,                     !- Specific Heat
    0.9,                      !- Thermal Absorptance
    0.7,                      !- Solar Absorptance
    0.7;                      !- Visible Absorptance

MATERIAL,
    Insulation 0.024,         !- Name
    Rough,                    !- Roughness
    0.024,                    !- Thickness
    0.04,                     !- Conductivity
    40,                       !- Density
    1500,                     !- Specific Heat
    0.9,                      !- Thermal Absorptance
    0.7,                      !- Solar Absorptance
    0.7;                      !- Visible Absorptance

MATERIAL,
    Insulation 0.027,         !- Name
    Rough,                    !- Roughness
    0.027,                    !- Thickness
    0.04,                     !- Conductivity
    40,                       !- Density
    1500,                     !- Specific Heat
    0.9,                      !- Thermal Absorptance
    0.7,                      !- Solar Absorptance
    0.7;                      !- Visible Absorptance

MATERIAL,
    Insulation 0.028,         !- Name
    Rough,                    !- Roughness
    0.028,                    !- Thickness
    0.04,                     !- Conductivity
    40,                       !- Density
    1500,                     !- Specific Heat
    0.9,                      !- Thermal Absorptance
    0.7,                      !- Solar Absorptance
    0.7;                      !- Visible Absorptance

MATERIAL,
    Insulation 0.029,         !- Name
    Rough,                    !- Roughness
    0.029,                    !- Thickness
    0.04,                     !- Conductivity
    40,                       !- Density
    1500,                     !- Specific Heat
    0.9,                      !- Thermal Absorptance
    0.7,                      !- Solar Absorptance
    0.7;                      !- Visible Absorptance

MATERIAL,
    Insulation 0.032,         !- Name
    Rough,                    !- Roughness
    0.032,                    !- Thickness
    0.04,                     !- Conductivity
    40,                       !- Density
    1500,                     !- Specific Heat
    0.9,                      !- Thermal Absorptance
    0.7,                      !- Solar Absorptance
    0.7;                      !- Visible Absorptance

MATERIAL,
    Insulation 0.036,         !- Name
    Rough,                    !- Roughness
    0.036,                    !- Thickness
    0.04,                     !- Conductivity
    40,                       !- Density
    1500,                     !- Specific Heat
    0.9,                      !- Thermal Absorptance
    0.7,                      !- Solar Absorptance
    0.7;                      !- Visible Absorptance

MATERIAL,
    Insulation 0.038,         !- Name
    Rough,                    !- Roughness
    0.038,                    !- Thickness
    0.04,                     !- Conductivity
    40,                       !- Density
    1500,                     !- Specific Heat
    0.9,                      !- Thermal Absorptance
    0.7,                      !- Solar Absorptance
    0.7;                      !- Visible Absorptance

MATERIAL,
    Insulation 0.040,         !- Name
    Rough,                    !- Roughness
    0.04,                     !- Thickness
    0.04,                     !- Conductivity
    40,                       !- Density
    1500,                     !- Specific Heat
    0.9,                      !- Thermal Absorptance
    0.7,                      !- Solar Absorptance
    0.7;                      !- Visible Absorptance

MATERIAL,
    Insulation 0.043,         !- Name
    Rough,                    !- Roughness
    0.043,                    !- Thickness
    0.04,                     !- Conductivity
    40,                       !- Density
    1500,                     !- Specific Heat
    0.9,                      !- Thermal Absorptance
    0.7,                      !- Solar Absorptance
    0.7;                      !- Visible Absorptance

MATERIAL,
    Insulation 0.046,         !- Name
    Rough,                    !- Roughness
    0.046,                    !- Thickness
    0.04,                     !- Conductivity
    40,                       !- Density
    1500,                     !- Specific Heat
    0.9,                      !- Thermal Absorptance
    0.7,                      !- Solar Absorptance
    0.7;                      !- Visible Absorptance

MATERIAL,
    Insulation 0.048,         !- Name
    Rough,                    !- Roughness
    0.048,                    !- Thickness
    0.04,                     !- Conductivity
    40,                       !- Density
    1500,                     !- Specific Heat
    0.9,                      !- Thermal Absorptance
    0.7,                      !- Solar Absorptance
    0.7;                      !- Visible Absorptance

MATERIAL,
    Insulation 0.057,         !- Name
    Rough,                    !- Roughness
    0.057,                    !- Thickness
    0.04,                     !- Conductivity
    40,                       !- Density
    1500,                     !- Specific Heat
    0.9,                      !- Thermal Absorptance
    0.7,                      !- Solar Absorptance
    0.7;                      !- Visible Absorptance

MATERIAL,
    Insulation 0.069,         !- Name
    Rough,                    !- Roughness
    0.069,                    !- Thickness
    0.04,                     !- Conductivity
    40,                       !- Density
    1500,                     !- Specific Heat
    0.9,                      !- Thermal Absorptance
    0.7,                      !- Solar Absorptance
    0.7;                      !- Visible Absorptance

MATERIAL,
    Insulation 0.077,         !- Name
    Rough,                    !- Roughness
    0.077,                    !- Thickness
    0.04,                     !- Conductivity
    40,                       !- Density
    1500,                     !- Specific Heat
    0.9,                      !- Thermal Absorptance
    0.7,                      !- Solar Absorptance
    0.7;                      !- Visible Absorptance

MATERIAL,
    Insulation 0.095,         !- Name
    Rough,                    !- Roughness
    0.095,                    !- Thickness
    0.04,                     !- Conductivity
    40,                       !- Density
    1500,                     !- Specific Heat
    0.9,                      !- Thermal Absorptance
    0.7,                      !- Solar Absorptance
    0.7;                      !- Visible Absorptance

MATERIAL,
    Insulation 0.062,         !- Name
    Rough,                    !- Roughness
    0.062,                    !- Thickness
    0.04,                     !- Conductivity
    40,                       !- Density
    1500,                     !- Specific Heat
    0.9,                      !- Thermal Absorptance
    0.7,                      !- Solar Absorptance
    0.7;                      !- Visible Absorptance

MATERIAL,
    Insulation 0.11,          !- Name
    Rough,                    !- Roughness
    0.11,                     !- Thickness
    0.04,                     !- Conductivity
    40,                       !- Density
    1500,                     !- Specific Heat
    0.9,                      !- Thermal Absorptance
    0.7,                      !- Solar Absorptance
    0.7;                      !- Visible Absorptance

MATERIAL,
    Insulation 0.14,          !- Name
    Rough,                    !- Roughness
    0.14,                     !- Thickness
    0.04,                     !- Conductivity
    40,                       !- Density
    1500,                     !- Specific Heat
    0.9,                      !- Thermal Absorptance
    0.7,                      !- Solar Absorptance
    0.7;                      !- Visible Absorptance

MATERIAL,
    Insulation 0.025,         !- Name
    Rough,                    !- Roughness
    0.025,                    !- Thickness
    0.04,                     !- Conductivity
    40,                       !- Density
    1500,                     !- Specific Heat
    0.9,                      !- Thermal Absorptance
    0.7,                      !- Solar Absorptance
    0.7;                      !- Visible Absorptance

MATERIAL,
    Insulation 0.049,         !- Name
    Rough,                    !- Roughness
    0.049,                    !- Thickness
    0.04,                     !- Conductivity
    40,                       !- Density
    1500,                     !- Specific Heat
    0.9,                      !- Thermal Absorptance
    0.7,                      !- Solar Absorptance
    0.7;                      !- Visible Absorptance

MATERIAL,
    Insulation 0.081,         !- Name
    Rough,                    !- Roughness
    0.081,                    !- Thickness
    0.04,                     !- Conductivity
    40,                       !- Density
    1500,                     !- Specific Heat
    0.9,                      !- Thermal Absorptance
    0.7,                      !- Solar Absorptance
    0.7;                      !- Visible Absorptance

MATERIAL,
    Insulation 0.097,         !- Name
    Rough,                    !- Roughness
    0.097,                    !- Thickness
    0.04,                     !- Conductivity
    40,                       !- Density
    1500,                     !- Specific Heat
    0.9,                      !- Thermal Absorptance
    0.7,                      !- Solar Absorptance
    0.7;                      !- Visible Absorptance

MATERIAL,
    Insulation 0.01,          !- Name
    Rough,                    !- Roughness
    0.01,                     !- Thickness
    0.04,                     !- Conductivity
    40,                       !- Density
    1500,                     !- Specific Heat
    0.9,                      !- Thermal Absorptance
    0.7,                      !- Solar Absorptance
    0.7;                      !- Visible Absorptance

MATERIAL,
    Insulation 0.034,         !- Name
    Rough,                    !- Roughness
    0.034,                    !- Thickness
    0.04,                     !- Conductivity
    40,                       !- Density
    1500,                     !- Specific Heat
    0.9,                      !- Thermal Absorptance
    0.7,                      !- Solar Absorptance
    0.7;                      !- Visible Absorptance

MATERIAL,
    Insulation 0.033,         !- Name
    Rough,                    !- Roughness
    0.033,                    !- Thickness
    0.04,                     !- Conductivity
    40,                       !- Density
    1500,                     !- Specific Heat
    0.9,                      !- Thermal Absorptance
    0.7,                      !- Solar Absorptance
    0.7;                      !- Visible Absorptance

MATERIAL,
    Insulation 0.06,          !- Name
    Rough,                    !- Roughness
    0.06,                     !- Thickness
    0.04,                     !- Conductivity
    40,                       !- Density
    1500,                     !- Specific Heat
    0.9,                      !- Thermal Absorptance
    0.7,                      !- Solar Absorptance
    0.7;                      !- Visible Absorptance

MATERIAL,
    Insulation 0.073,         !- Name
    Rough,                    !- Roughness
    0.073,                    !- Thickness
    0.04,                     !- Conductivity
    40,                       !- Density
    1500,                     !- Specific Heat
    0.9,                      !- Thermal Absorptance
    0.7,                      !- Solar Absorptance
    0.7;                      !- Visible Absorptance

MATERIAL,
    Insulation 0.085,         !- Name
    Rough,                    !- Roughness
    0.085,                    !- Thickness
    0.04,                     !- Conductivity
    40,                       !- Density
    1500,                     !- Specific Heat
    0.9,                      !- Thermal Absorptance
    0.7,                      !- Solar Absorptance
    0.7;                      !- Visible Absorptance

MATERIAL,
    Insulation 0.072,         !- Name
    Rough,                    !- Roughness
    0.072,                    !- Thickness
    0.04,                     !- Conductivity
    40,                       !- Density
    1500,                     !- Specific Heat
    0.9,                      !- Thermal Absorptance
    0.7,                      !- Solar Absorptance
    0.7;                      !- Visible Absorptance

MATERIAL,
    Insulation 0.05,          !- Name
    Rough,                    !- Roughness
    0.05,                     !- Thickness
    0.04,                     !- Conductivity
    40,                       !- Density
    1500,                     !- Specific Heat
    0.9,                      !- Thermal Absorptance
    0.7,                      !- Solar Absorptance
    0.7;                      !- Visible Absorptance

MATERIAL,
    Insulation 0.053,         !- Name
    Rough,                    !- Roughness
    0.053,                    !- Thickness
    0.04,                     !- Conductivity
    40,                       !- Density
    1500,                     !- Specific Heat
    0.9,                      !- Thermal Absorptance
    0.7,                      !- Solar Absorptance
    0.7;                      !- Visible Absorptance

MATERIAL,
    Insulation 0.068,         !- Name
    Rough,                    !- Roughness
    0.068,                    !- Thickness
    0.04,                     !- Conductivity
    40,                       !- Density
    1500,                     !- Specific Heat
    0.9,                      !- Thermal Absorptance
    0.7,                      !- Solar Absorptance
    0.7;                      !- Visible Absorptance

MATERIAL,
    Insulation 0.042,         !- Name
    Rough,                    !- Roughness
    0.042,                    !- Thickness
    0.04,                     !- Conductivity
    40,                       !- Density
    1500,                     !- Specific Heat
    0.9,                      !- Thermal Absorptance
    0.7,                      !- Solar Absorptance
    0.7;                      !- Visible Absorptance

MATERIAL,
    Insulation 0.059,         !- Name
    Rough,                    !- Roughness
    0.059,                    !- Thickness
    0.04,                     !- Conductivity
    40,                       !- Density
    1500,                     !- Specific Heat
    0.9,                      !- Thermal Absorptance
    0.7,                      !- Solar Absorptance
    0.7;                      !- Visible Absorptance

MATERIAL,
    Insulation 0.0078,        !- Name
    Rough,                    !- Roughness
    0.008,                    !- Thickness
    0.04,                     !- Conductivity
    40,                       !- Density
    1500,                     !- Specific Heat
    0.9,                      !- Thermal Absorptance
    0.7,                      !- Solar Absorptance
    0.7;                      !- Visible Absorptance

MATERIAL,
    Insulation 0.096,         !- Name
    Rough,                    !- Roughness
    0.096,                    !- Thickness
    0.04,                     !- Conductivity
    40,                       !- Density
    1500,                     !- Specific Heat
    0.9,                      !- Thermal Absorptance
    0.7,                      !- Solar Absorptance
    0.7;                      !- Visible Absorptance

MATERIAL,
    Insulation 0.019,         !- Name
    Rough,                    !- Roughness
    0.019,                    !- Thickness
    0.04,                     !- Conductivity
    40,                       !- Density
    1500,                     !- Specific Heat
    0.9,                      !- Thermal Absorptance
    0.7,                      !- Solar Absorptance
    0.7;                      !- Visible Absorptance

MATERIAL,
    Insulation 0.0059,        !- Name
    Rough,                    !- Roughness
    0.006,                    !- Thickness
    0.04,                     !- Conductivity
    40,                       !- Density
    1500,                     !- Specific Heat
    0.9,                      !- Thermal Absorptance
    0.7,                      !- Solar Absorptance
    0.7;                      !- Visible Absorptance

MATERIAL,
    Insulation 0.04,          !- Name
    Rough,                    !- Roughness
    0.04,                     !- Thickness
    0.04,                     !- Conductivity
    40,                       !- Density
    1500,                     !- Specific Heat
    0.9,                      !- Thermal Absorptance
    0.7,                      !- Solar Absorptance
    0.7;                      !- Visible Absorptance

MATERIAL,
    Insulation 0.076,         !- Name
    Rough,                    !- Roughness
    0.076,                    !- Thickness
    0.04,                     !- Conductivity
    40,                       !- Density
    1500,                     !- Specific Heat
    0.9,                      !- Thermal Absorptance
    0.7,                      !- Solar Absorptance
    0.7;                      !- Visible Absorptance

MATERIAL,
    Insulation 0.0081,        !- Name
    Rough,                    !- Roughness
    0.008,                    !- Thickness
    0.04,                     !- Conductivity
    40,                       !- Density
    1500,                     !- Specific Heat
    0.9,                      !- Thermal Absorptance
    0.7,                      !- Solar Absorptance
    0.7;                      !- Visible Absorptance

MATERIAL,
    Insulation 0.0044,        !- Name
    Rough,                    !- Roughness
    0.004,                    !- Thickness
    0.04,                     !- Conductivity
    40,                       !- Density
    1500,                     !- Specific Heat
    0.9,                      !- Thermal Absorptance
    0.7,                      !- Solar Absorptance
    0.7;                      !- Visible Absorptance

MATERIAL,
    Insulation 0.02,          !- Name
    Rough,                    !- Roughness
    0.02,                     !- Thickness
    0.04,                     !- Conductivity
    40,                       !- Density
    1500,                     !- Specific Heat
    0.9,                      !- Thermal Absorptance
    0.7,                      !- Solar Absorptance
    0.7;                      !- Visible Absorptance

MATERIAL,
    Insulation 0.0054,        !- Name
    Rough,                    !- Roughness
    0.005,                    !- Thickness
    0.04,                     !- Conductivity
    40,                       !- Density
    1500,                     !- Specific Heat
    0.9,                      !- Thermal Absorptance
    0.7,                      !- Solar Absorptance
    0.7;                      !- Visible Absorptance

MATERIAL,
    Insulation 0.0033,        !- Name
    Rough,                    !- Roughness
    0.003,                    !- Thickness
    0.04,                     !- Conductivity
    40,                       !- Density
    1500,                     !- Specific Heat
    0.9,                      !- Thermal Absorptance
    0.7,                      !- Solar Absorptance
    0.7;                      !- Visible Absorptance

WINDOWMATERIAL:SIMPLEGLAZINGSYSTEM,
    SCZ1_Public&Industrial_1980_Win_material,    !- Name
    3.26,                     !- UFactor
    0.7;                      !- Solar Heat Gain Coefficient

WINDOWMATERIAL:SIMPLEGLAZINGSYSTEM,
    SCZ1_Public&Industrial_1995_Win_material,    !- Name
    2.5,                      !- UFactor
    0.5;                      !- Solar Heat Gain Coefficient

WINDOWMATERIAL:SIMPLEGLAZINGSYSTEM,
    SCZ1_Public&Industrial_2005_Win_material,    !- Name
    2.5,                      !- UFactor
    0.4;                      !- Solar Heat Gain Coefficient

WINDOWMATERIAL:SIMPLEGLAZINGSYSTEM,
    SCZ1_Public&Industrial_2015_Win_material,    !- Name
    2.2,                      !- UFactor
    0.4;                      !- Solar Heat Gain Coefficient

WINDOWMATERIAL:SIMPLEGLAZINGSYSTEM,
    SCZ2_Public&Industrial_1980_Win_material,    !- Name
    4.5,                      !- UFactor
    0.7;                      !- Solar Heat Gain Coefficient

WINDOWMATERIAL:SIMPLEGLAZINGSYSTEM,
    SCZ2_Public&Industrial_1995_Win_material,    !- Name
    3.5,                      !- UFactor
    0.5;                      !- Solar Heat Gain Coefficient

WINDOWMATERIAL:SIMPLEGLAZINGSYSTEM,
    SCZ2_Public&Industrial_2005_Win_material,    !- Name
    2.6,                      !- UFactor
    0.5;                      !- Solar Heat Gain Coefficient

WINDOWMATERIAL:SIMPLEGLAZINGSYSTEM,
    SCZ2_Public&Industrial_2015_Win_material,    !- Name
    2.3,                      !- UFactor
    0.5;                      !- Solar Heat Gain Coefficient

WINDOWMATERIAL:SIMPLEGLAZINGSYSTEM,
    CZ_Public&Industrial_1980_Win_material,    !- Name
    6.1,                      !- UFactor
    0.75;                     !- Solar Heat Gain Coefficient

WINDOWMATERIAL:SIMPLEGLAZINGSYSTEM,
    CZ_Public&Industrial_1995_Win_material,    !- Name
    4.5,                      !- UFactor
    0.6025;                   !- Solar Heat Gain Coefficient

WINDOWMATERIAL:SIMPLEGLAZINGSYSTEM,
    CZ_Public&Industrial_2005_Win_material,    !- Name
    3.175,                    !- UFactor
    0.485;                    !- Solar Heat Gain Coefficient

WINDOWMATERIAL:SIMPLEGLAZINGSYSTEM,
    CZ_Public&Industrial_2015_Win_material,    !- Name
    2.425,                    !- UFactor
    0.3825;                   !- Solar Heat Gain Coefficient

WINDOWMATERIAL:SIMPLEGLAZINGSYSTEM,
    HSCWZ_Public&Industrial_1980_Win_material,    !- Name
    6.1,                      !- UFactor
    0.75;                     !- Solar Heat Gain Coefficient

WINDOWMATERIAL:SIMPLEGLAZINGSYSTEM,
    HSCWZ_Public&Industrial_1995_Win_material,    !- Name
    4.5,                      !- UFactor
    0.6025;                   !- Solar Heat Gain Coefficient

WINDOWMATERIAL:SIMPLEGLAZINGSYSTEM,
    HSCWZ_Public&Industrial_2005_Win_material,    !- Name
    3.175,                    !- UFactor
    0.485;                    !- Solar Heat Gain Coefficient

WINDOWMATERIAL:SIMPLEGLAZINGSYSTEM,
    HSCWZ_Public&Industrial_2015_Win_material,    !- Name
    2.425,                    !- UFactor
    0.3825;                   !- Solar Heat Gain Coefficient

WINDOWMATERIAL:SIMPLEGLAZINGSYSTEM,
    HSWWZ_Public&Industrial_1980_Win_material,    !- Name
    6.1,                      !- UFactor
    0.75;                     !- Solar Heat Gain Coefficient

WINDOWMATERIAL:SIMPLEGLAZINGSYSTEM,
    HSWWZ_Public&Industrial_1995_Win_material,    !- Name
    4.5,                      !- UFactor
    0.6025;                   !- Solar Heat Gain Coefficient

WINDOWMATERIAL:SIMPLEGLAZINGSYSTEM,
    HSWWZ_Public&Industrial_2005_Win_material,    !- Name
    3.175,                    !- UFactor
    0.485;                    !- Solar Heat Gain Coefficient

WINDOWMATERIAL:SIMPLEGLAZINGSYSTEM,
    HSWWZ_Public&Industrial_2015_Win_material,    !- Name
    2.425,                    !- UFactor
    0.3825;                   !- Solar Heat Gain Coefficient

WINDOWMATERIAL:SIMPLEGLAZINGSYSTEM,
    TZ_Public&Industrial_1980_Win_material,    !- Name
    6.1,                      !- UFactor
    0.75;                     !- Solar Heat Gain Coefficient

WINDOWMATERIAL:SIMPLEGLAZINGSYSTEM,
    TZ_Public&Industrial_1995_Win_material,    !- Name
    4.5,                      !- UFactor
    0.6025;                   !- Solar Heat Gain Coefficient

WINDOWMATERIAL:SIMPLEGLAZINGSYSTEM,
    TZ_Public&Industrial_2005_Win_material,    !- Name
    3.175,                    !- UFactor
    0.485;                    !- Solar Heat Gain Coefficient

WINDOWMATERIAL:SIMPLEGLAZINGSYSTEM,
    TZ_Public&Industrial_2015_Win_material,    !- Name
    2.425,                    !- UFactor
    0.3825;                   !- Solar Heat Gain Coefficient

CONSTRUCTION,
    SCZ1_Public&Industrial_1980_FloorSlab,    !- Name
    Tile,                     !- Outside Layer
    Concrete,                 !- Layer 2
    Insulation 0.021,         !- Layer 3
    Concrete,                 !- Layer 4
    Tile;                     !- Layer 5

CONSTRUCTION,
    SCZ1_Public&Industrial_1995_FloorSlab,    !- Name
    Tile,                     !- Outside Layer
    Concrete,                 !- Layer 2
    Insulation 0.027,         !- Layer 3
    Concrete,                 !- Layer 4
    Tile;                     !- Layer 5

CONSTRUCTION,
    SCZ1_Public&Industrial_2005_FloorSlab,    !- Name
    Tile,                     !- Outside Layer
    Concrete,                 !- Layer 2
    Insulation 0.034,         !- Layer 3
    Concrete,                 !- Layer 4
    Tile;                     !- Layer 5

CONSTRUCTION,
    SCZ1_Public&Industrial_2015_FloorSlab,    !- Name
    Tile,                     !- Outside Layer
    Concrete,                 !- Layer 2
    Insulation 0.034,         !- Layer 3
    Concrete,                 !- Layer 4
    Tile;                     !- Layer 5

CONSTRUCTION,
    SCZ1_Public&Industrial_1980_FloorGround,    !- Name
    Tile,                     !- Outside Layer
    Concrete,                 !- Layer 2
    Gypsum,                   !- Layer 3
    Insulation 0.033;         !- Layer 4

CONSTRUCTION,
    SCZ1_Public&Industrial_1995_FloorGround,    !- Name
    Tile,                     !- Outside Layer
    Concrete,                 !- Layer 2
    Gypsum,                   !- Layer 3
    Insulation 0.06;          !- Layer 4

CONSTRUCTION,
    SCZ1_Public&Industrial_2005_FloorGround,    !- Name
    Tile,                     !- Outside Layer
    Concrete,                 !- Layer 2
    Gypsum,                   !- Layer 3
    Insulation 0.06;          !- Layer 4

CONSTRUCTION,
    SCZ1_Public&Industrial_2015_FloorGround,    !- Name
    Tile,                     !- Outside Layer
    Concrete,                 !- Layer 2
    Gypsum,                   !- Layer 3
    Insulation 0.073;         !- Layer 4

CONSTRUCTION,
    SCZ1_Public&Industrial_1980_Win,    !- Name
    SCZ1_Public&Industrial_1980_Win_material;    !- Outside Layer

CONSTRUCTION,
    SCZ1_Public&Industrial_1995_Win,    !- Name
    SCZ1_Public&Industrial_1995_Win_material;    !- Outside Layer

CONSTRUCTION,
    SCZ1_Public&Industrial_2005_Win,    !- Name
    SCZ1_Public&Industrial_2005_Win_material;    !- Outside Layer

CONSTRUCTION,
    SCZ1_Public&Industrial_2015_Win,    !- Name
    SCZ1_Public&Industrial_2015_Win_material;    !- Outside Layer

CONSTRUCTION,
    SCZ2_Public&Industrial_1980_FloorSlab,    !- Name
    Tile,                     !- Outside Layer
    Concrete,                 !- Layer 2
    Insulation 0.021,         !- Layer 3
    Concrete,                 !- Layer 4
    Tile;                     !- Layer 5

CONSTRUCTION,
    SCZ2_Public&Industrial_1995_FloorSlab,    !- Name
    Tile,                     !- Outside Layer
    Concrete,                 !- Layer 2
    Insulation 0.027,         !- Layer 3
    Concrete,                 !- Layer 4
    Tile;                     !- Layer 5

CONSTRUCTION,
    SCZ2_Public&Industrial_2005_FloorSlab,    !- Name
    Tile,                     !- Outside Layer
    Concrete,                 !- Layer 2
    Insulation 0.034,         !- Layer 3
    Concrete,                 !- Layer 4
    Tile;                     !- Layer 5

CONSTRUCTION,
    SCZ2_Public&Industrial_2015_FloorSlab,    !- Name
    Tile,                     !- Outside Layer
    Concrete,                 !- Layer 2
    Insulation 0.034,         !- Layer 3
    Concrete,                 !- Layer 4
    Tile;                     !- Layer 5

CONSTRUCTION,
    SCZ2_Public&Industrial_1980_FloorGround,    !- Name
    Tile,                     !- Outside Layer
    Concrete,                 !- Layer 2
    Gypsum,                   !- Layer 3
    Insulation 0.033;         !- Layer 4

CONSTRUCTION,
    SCZ2_Public&Industrial_1995_FloorGround,    !- Name
    Tile,                     !- Outside Layer
    Concrete,                 !- Layer 2
    Gypsum,                   !- Layer 3
    Insulation 0.043;         !- Layer 4

CONSTRUCTION,
    SCZ2_Public&Industrial_2005_FloorGround,    !- Name
    Tile,                     !- Outside Layer
    Concrete,                 !- Layer 2
    Gypsum,                   !- Layer 3
    Insulation 0.043;         !- Layer 4

CONSTRUCTION,
    SCZ2_Public&Industrial_2015_FloorGround,    !- Name
    Tile,                     !- Outside Layer
    Concrete,                 !- Layer 2
    Gypsum,                   !- Layer 3
    Insulation 0.05;          !- Layer 4

CONSTRUCTION,
    SCZ2_Public&Industrial_1980_Win,    !- Name
    SCZ2_Public&Industrial_1980_Win_material;    !- Outside Layer

CONSTRUCTION,
    SCZ2_Public&Industrial_1995_Win,    !- Name
    SCZ2_Public&Industrial_1995_Win_material;    !- Outside Layer

CONSTRUCTION,
    SCZ2_Public&Industrial_2005_Win,    !- Name
    SCZ2_Public&Industrial_2005_Win_material;    !- Outside Layer

CONSTRUCTION,
    SCZ2_Public&Industrial_2015_Win,    !- Name
    SCZ2_Public&Industrial_2015_Win_material;    !- Outside Layer

CONSTRUCTION,
    CZ_Public&Industrial_1980_FloorSlab,    !- Name
    Tile,                     !- Outside Layer
    Concrete,                 !- Layer 2
    Insulation 0.018,         !- Layer 3
    Concrete,                 !- Layer 4
    Tile;                     !- Layer 5

CONSTRUCTION,
    CZ_Public&Industrial_1995_FloorSlab,    !- Name
    Tile,                     !- Outside Layer
    Concrete,                 !- Layer 2
    Insulation 0.027,         !- Layer 3
    Concrete,                 !- Layer 4
    Tile;                     !- Layer 5

CONSTRUCTION,
    CZ_Public&Industrial_2005_FloorSlab,    !- Name
    Tile,                     !- Outside Layer
    Concrete,                 !- Layer 2
    Insulation 0.034,         !- Layer 3
    Concrete,                 !- Layer 4
    Tile;                     !- Layer 5

CONSTRUCTION,
    CZ_Public&Industrial_2015_FloorSlab,    !- Name
    Tile,                     !- Outside Layer
    Concrete,                 !- Layer 2
    Insulation 0.034,         !- Layer 3
    Concrete,                 !- Layer 4
    Tile;                     !- Layer 5

CONSTRUCTION,
    CZ_Public&Industrial_1980_FloorGround,    !- Name
    Tile,                     !- Outside Layer
    Concrete,                 !- Layer 2
    Gypsum,                   !- Layer 3
    Insulation 0.027;         !- Layer 4

CONSTRUCTION,
    CZ_Public&Industrial_1995_FloorGround,    !- Name
    Tile,                     !- Outside Layer
    Concrete,                 !- Layer 2
    Gypsum,                   !- Layer 3
    Insulation 0.05;          !- Layer 4

CONSTRUCTION,
    CZ_Public&Industrial_2005_FloorGround,    !- Name
    Tile,                     !- Outside Layer
    Concrete,                 !- Layer 2
    Gypsum,                   !- Layer 3
    Insulation 0.043;         !- Layer 4

CONSTRUCTION,
    CZ_Public&Industrial_2015_FloorGround,    !- Name
    Tile,                     !- Outside Layer
    Concrete,                 !- Layer 2
    Gypsum,                   !- Layer 3
    Insulation 0.05;          !- Layer 4

CONSTRUCTION,
    CZ_Public&Industrial_1980_Win,    !- Name
    CZ_Public&Industrial_1980_Win_material;    !- Outside Layer

CONSTRUCTION,
    CZ_Public&Industrial_1995_Win,    !- Name
    CZ_Public&Industrial_1995_Win_material;    !- Outside Layer

CONSTRUCTION,
    CZ_Public&Industrial_2005_Win,    !- Name
    CZ_Public&Industrial_2005_Win_material;    !- Outside Layer

CONSTRUCTION,
    CZ_Public&Industrial_2015_Win,    !- Name
    CZ_Public&Industrial_2015_Win_material;    !- Outside Layer

CONSTRUCTION,
    HSCWZ_Public&Industrial_1980_FloorSlab,    !- Name
    Tile,                     !- Outside Layer
    Concrete,                 !- Layer 2
    Insulation 0.014,         !- Layer 3
    Concrete,                 !- Layer 4
    Tile;                     !- Layer 5

CONSTRUCTION,
    HSCWZ_Public&Industrial_1995_FloorSlab,    !- Name
    Tile,                     !- Outside Layer
    Concrete,                 !- Layer 2
    Insulation 0.021,         !- Layer 3
    Concrete,                 !- Layer 4
    Tile;                     !- Layer 5

CONSTRUCTION,
    HSCWZ_Public&Industrial_2005_FloorSlab,    !- Name
    Tile,                     !- Outside Layer
    Concrete,                 !- Layer 2
    Insulation 0.021,         !- Layer 3
    Concrete,                 !- Layer 4
    Tile;                     !- Layer 5

CONSTRUCTION,
    HSCWZ_Public&Industrial_2015_FloorSlab,    !- Name
    Tile,                     !- Outside Layer
    Concrete,                 !- Layer 2
    Insulation 0.021,         !- Layer 3
    Concrete,                 !- Layer 4
    Tile;                     !- Layer 5

CONSTRUCTION,
    HSCWZ_Public&Industrial_1980_FloorGround,    !- Name
    Tile,                     !- Outside Layer
    Concrete,                 !- Layer 2
    Gypsum,                   !- Layer 3
    Insulation 0.024;         !- Layer 4

CONSTRUCTION,
    HSCWZ_Public&Industrial_1995_FloorGround,    !- Name
    Tile,                     !- Outside Layer
    Concrete,                 !- Layer 2
    Gypsum,                   !- Layer 3
    Insulation 0.043;         !- Layer 4

CONSTRUCTION,
    HSCWZ_Public&Industrial_2005_FloorGround,    !- Name
    Tile,                     !- Outside Layer
    Concrete,                 !- Layer 2
    Gypsum,                   !- Layer 3
    Insulation 0.043;         !- Layer 4

CONSTRUCTION,
    HSCWZ_Public&Industrial_2015_FloorGround,    !- Name
    Tile,                     !- Outside Layer
    Concrete,                 !- Layer 2
    Gypsum,                   !- Layer 3
    Insulation 0.043;         !- Layer 4

CONSTRUCTION,
    HSCWZ_Public&Industrial_1980_Win,    !- Name
    HSCWZ_Public&Industrial_1980_Win_material;    !- Outside Layer

CONSTRUCTION,
    HSCWZ_Public&Industrial_1995_Win,    !- Name
    HSCWZ_Public&Industrial_1995_Win_material;    !- Outside Layer

CONSTRUCTION,
    HSCWZ_Public&Industrial_2005_Win,    !- Name
    HSCWZ_Public&Industrial_2005_Win_material;    !- Outside Layer

CONSTRUCTION,
    HSCWZ_Public&Industrial_2015_Win,    !- Name
    HSCWZ_Public&Industrial_2015_Win_material;    !- Outside Layer

CONSTRUCTION,
    HSWWZ_Public&Industrial_1980_FloorSlab,    !- Name
    Tile,                     !- Outside Layer
    Concrete,                 !- Layer 2
    Insulation 0.01,          !- Layer 3
    Concrete,                 !- Layer 4
    Tile;                     !- Layer 5

CONSTRUCTION,
    HSWWZ_Public&Industrial_1995_FloorSlab,    !- Name
    Tile,                     !- Outside Layer
    Concrete,                 !- Layer 2
    Insulation 0.014,         !- Layer 3
    Concrete,                 !- Layer 4
    Tile;                     !- Layer 5

CONSTRUCTION,
    HSWWZ_Public&Industrial_2005_FloorSlab,    !- Name
    Tile,                     !- Outside Layer
    Concrete,                 !- Layer 2
    Insulation 0.014,         !- Layer 3
    Concrete,                 !- Layer 4
    Tile;                     !- Layer 5

CONSTRUCTION,
    HSWWZ_Public&Industrial_2015_FloorSlab,    !- Name
    Tile,                     !- Outside Layer
    Concrete,                 !- Layer 2
    Insulation 0.014,         !- Layer 3
    Concrete,                 !- Layer 4
    Tile;                     !- Layer 5

CONSTRUCTION,
    HSWWZ_Public&Industrial_1980_FloorGround,    !- Name
    Tile,                     !- Outside Layer
    Concrete,                 !- Layer 2
    Gypsum,                   !- Layer 3
    Insulation 0.02;          !- Layer 4

CONSTRUCTION,
    HSWWZ_Public&Industrial_1995_FloorGround,    !- Name
    Tile,                     !- Outside Layer
    Concrete,                 !- Layer 2
    Gypsum,                   !- Layer 3
    Insulation 0.033;         !- Layer 4

CONSTRUCTION,
    HSWWZ_Public&Industrial_2005_FloorGround,    !- Name
    Tile,                     !- Outside Layer
    Concrete,                 !- Layer 2
    Gypsum,                   !- Layer 3
    Insulation 0.033;         !- Layer 4

CONSTRUCTION,
    HSWWZ_Public&Industrial_2015_FloorGround,    !- Name
    Tile,                     !- Outside Layer
    Concrete,                 !- Layer 2
    Gypsum,                   !- Layer 3
    Insulation 0.033;         !- Layer 4

CONSTRUCTION,
    HSWWZ_Public&Industrial_1980_Win,    !- Name
    HSWWZ_Public&Industrial_1980_Win_material;    !- Outside Layer

CONSTRUCTION,
    HSWWZ_Public&Industrial_1995_Win,    !- Name
    HSWWZ_Public&Industrial_1995_Win_material;    !- Outside Layer

CONSTRUCTION,
    HSWWZ_Public&Industrial_2005_Win,    !- Name
    HSWWZ_Public&Industrial_2005_Win_material;    !- Outside Layer

CONSTRUCTION,
    HSWWZ_Public&Industrial_2015_Win,    !- Name
    HSWWZ_Public&Industrial_2015_Win_material;    !- Outside Layer

CONSTRUCTION,
    TZ_Public&Industrial_1980_FloorSlab,    !- Name
    Tile,                     !- Outside Layer
    Concrete,                 !- Layer 2
    Insulation 0.01,          !- Layer 3
    Concrete,                 !- Layer 4
    Tile;                     !- Layer 5

CONSTRUCTION,
    TZ_Public&Industrial_1995_FloorSlab,    !- Name
    Tile,                     !- Outside Layer
    Concrete,                 !- Layer 2
    Insulation 0.01,          !- Layer 3
    Concrete,                 !- Layer 4
    Tile;                     !- Layer 5

CONSTRUCTION,
    TZ_Public&Industrial_2005_FloorSlab,    !- Name
    Tile,                     !- Outside Layer
    Concrete,                 !- Layer 2
    Insulation 0.014,         !- Layer 3
    Concrete,                 !- Layer 4
    Tile;                     !- Layer 5

CONSTRUCTION,
    TZ_Public&Industrial_2015_FloorSlab,    !- Name
    Tile,                     !- Outside Layer
    Concrete,                 !- Layer 2
    Insulation 0.014,         !- Layer 3
    Concrete,                 !- Layer 4
    Tile;                     !- Layer 5

CONSTRUCTION,
    TZ_Public&Industrial_1980_FloorGround,    !- Name
    Tile,                     !- Outside Layer
    Concrete,                 !- Layer 2
    Gypsum,                   !- Layer 3
    Insulation 0.017;         !- Layer 4

CONSTRUCTION,
    TZ_Public&Industrial_1995_FloorGround,    !- Name
    Tile,                     !- Outside Layer
    Concrete,                 !- Layer 2
    Gypsum,                   !- Layer 3
    Insulation 0.027;         !- Layer 4

CONSTRUCTION,
    TZ_Public&Industrial_2005_FloorGround,    !- Name
    Tile,                     !- Outside Layer
    Concrete,                 !- Layer 2
    Gypsum,                   !- Layer 3
    Insulation 0.02;          !- Layer 4

CONSTRUCTION,
    TZ_Public&Industrial_2015_FloorGround,    !- Name
    Tile,                     !- Outside Layer
    Concrete,                 !- Layer 2
    Gypsum,                   !- Layer 3
    Insulation 0.02;          !- Layer 4

CONSTRUCTION,
    TZ_Public&Industrial_1980_Win,    !- Name
    TZ_Public&Industrial_1980_Win_material;    !- Outside Layer

CONSTRUCTION,
    TZ_Public&Industrial_1995_Win,    !- Name
    TZ_Public&Industrial_1995_Win_material;    !- Outside Layer

CONSTRUCTION,
    TZ_Public&Industrial_2005_Win,    !- Name
    TZ_Public&Industrial_2005_Win_material;    !- Outside Layer

CONSTRUCTION,
    TZ_Public&Industrial_2015_Win,    !- Name
    TZ_Public&Industrial_2015_Win_material;    !- Outside Layer

CONSTRUCTION,
    SCZ1_Public&Industrial_1980_Roof,    !- Name
    AsphaltFelt,              !- Outside Layer
    Concrete,                 !- Layer 2
    Insulation 0.048;         !- Layer 3

CONSTRUCTION,
    SCZ1_Public&Industrial_1995_Roof,    !- Name
    AsphaltFelt,              !- Outside Layer
    Concrete,                 !- Layer 2
    Insulation 0.048;         !- Layer 3

CONSTRUCTION,
    SCZ1_Public&Industrial_2005_Roof,    !- Name
    AsphaltFelt,              !- Outside Layer
    Concrete,                 !- Layer 2
    Insulation 0.048;         !- Layer 3

CONSTRUCTION,
    SCZ1_Public&Industrial_2015_Roof,    !- Name
    AsphaltFelt,              !- Outside Layer
    Concrete,                 !- Layer 2
    Insulation 0.048;         !- Layer 3

CONSTRUCTION,
    SCZ1_Public&Industrial_1980_ExtWall,    !- Name
    Brick,                    !- Outside Layer
    Concrete,                 !- Layer 2
    Insulation 0.022;         !- Layer 3

CONSTRUCTION,
    SCZ1_Public&Industrial_1995_ExtWall,    !- Name
    Brick,                    !- Outside Layer
    Concrete,                 !- Layer 2
    Insulation 0.022;         !- Layer 3

CONSTRUCTION,
    SCZ1_Public&Industrial_2005_ExtWall,    !- Name
    Brick,                    !- Outside Layer
    Concrete,                 !- Layer 2
    Insulation 0.022;         !- Layer 3

CONSTRUCTION,
    SCZ1_Public&Industrial_2015_ExtWall,    !- Name
    Brick,                    !- Outside Layer
    Concrete,                 !- Layer 2
    Insulation 0.022;         !- Layer 3

CONSTRUCTION,
    SCZ1_Public&Industrial_1980_IntWall,    !- Name
    Brick,                    !- Outside Layer
    Brick;                    !- Layer 2

CONSTRUCTION,
    SCZ1_Public&Industrial_1995_IntWall,    !- Name
    Brick,                    !- Outside Layer
    Brick;                    !- Layer 2

CONSTRUCTION,
    SCZ1_Public&Industrial_2005_IntWall,    !- Name
    Brick,                    !- Outside Layer
    Brick;                    !- Layer 2

CONSTRUCTION,
    SCZ1_Public&Industrial_2015_IntWall,    !- Name
    Brick,                    !- Outside Layer
    Brick;                    !- Layer 2

CONSTRUCTION,
    SCZ2_Public&Industrial_1980_Roof,    !- Name
    AsphaltFelt,              !- Outside Layer
    Concrete,                 !- Layer 2
    Insulation 0.036;         !- Layer 3

CONSTRUCTION,
    SCZ2_Public&Industrial_1995_Roof,    !- Name
    AsphaltFelt,              !- Outside Layer
    Concrete,                 !- Layer 2
    Insulation 0.036;         !- Layer 3

CONSTRUCTION,
    SCZ2_Public&Industrial_2005_Roof,    !- Name
    AsphaltFelt,              !- Outside Layer
    Concrete,                 !- Layer 2
    Insulation 0.036;         !- Layer 3

CONSTRUCTION,
    SCZ2_Public&Industrial_2015_Roof,    !- Name
    AsphaltFelt,              !- Outside Layer
    Concrete,                 !- Layer 2
    Insulation 0.036;         !- Layer 3

CONSTRUCTION,
    SCZ2_Public&Industrial_1980_ExtWall,    !- Name
    Brick,                    !- Outside Layer
    Concrete,                 !- Layer 2
    Insulation 0.021;         !- Layer 3

CONSTRUCTION,
    SCZ2_Public&Industrial_1995_ExtWall,    !- Name
    Brick,                    !- Outside Layer
    Concrete,                 !- Layer 2
    Insulation 0.021;         !- Layer 3

CONSTRUCTION,
    SCZ2_Public&Industrial_2005_ExtWall,    !- Name
    Brick,                    !- Outside Layer
    Concrete,                 !- Layer 2
    Insulation 0.021;         !- Layer 3

CONSTRUCTION,
    SCZ2_Public&Industrial_2015_ExtWall,    !- Name
    Brick,                    !- Outside Layer
    Concrete,                 !- Layer 2
    Insulation 0.021;         !- Layer 3

CONSTRUCTION,
    SCZ2_Public&Industrial_1980_IntWall,    !- Name
    Brick,                    !- Outside Layer
    Brick;                    !- Layer 2

CONSTRUCTION,
    SCZ2_Public&Industrial_1995_IntWall,    !- Name
    Brick,                    !- Outside Layer
    Brick;                    !- Layer 2

CONSTRUCTION,
    SCZ2_Public&Industrial_2005_IntWall,    !- Name
    Brick,                    !- Outside Layer
    Brick;                    !- Layer 2

CONSTRUCTION,
    SCZ2_Public&Industrial_2015_IntWall,    !- Name
    Brick,                    !- Outside Layer
    Brick;                    !- Layer 2

CONSTRUCTION,
    CZ_Public&Industrial_1980_Roof,    !- Name
    AsphaltFelt,              !- Outside Layer
    Concrete,                 !- Layer 2
    Insulation 0.027;         !- Layer 3

CONSTRUCTION,
    CZ_Public&Industrial_1995_Roof,    !- Name
    AsphaltFelt,              !- Outside Layer
    Concrete,                 !- Layer 2
    Insulation 0.027;         !- Layer 3

CONSTRUCTION,
    CZ_Public&Industrial_2005_Roof,    !- Name
    AsphaltFelt,              !- Outside Layer
    Concrete,                 !- Layer 2
    Insulation 0.027;         !- Layer 3

CONSTRUCTION,
    CZ_Public&Industrial_2015_Roof,    !- Name
    AsphaltFelt,              !- Outside Layer
    Concrete,                 !- Layer 2
    Insulation 0.027;         !- Layer 3

CONSTRUCTION,
    CZ_Public&Industrial_1980_ExtWall,    !- Name
    Brick,                    !- Outside Layer
    Concrete,                 !- Layer 2
    Insulation 0.014;         !- Layer 3

CONSTRUCTION,
    CZ_Public&Industrial_1995_ExtWall,    !- Name
    Brick,                    !- Outside Layer
    Concrete,                 !- Layer 2
    Insulation 0.014;         !- Layer 3

CONSTRUCTION,
    CZ_Public&Industrial_2005_ExtWall,    !- Name
    Brick,                    !- Outside Layer
    Concrete,                 !- Layer 2
    Insulation 0.014;         !- Layer 3

CONSTRUCTION,
    CZ_Public&Industrial_2015_ExtWall,    !- Name
    Brick,                    !- Outside Layer
    Concrete,                 !- Layer 2
    Insulation 0.014;         !- Layer 3

CONSTRUCTION,
    CZ_Public&Industrial_1980_IntWall,    !- Name
    Brick,                    !- Outside Layer
    Brick;                    !- Layer 2

CONSTRUCTION,
    CZ_Public&Industrial_1995_IntWall,    !- Name
    Brick,                    !- Outside Layer
    Brick;                    !- Layer 2

CONSTRUCTION,
    CZ_Public&Industrial_2005_IntWall,    !- Name
    Brick,                    !- Outside Layer
    Brick;                    !- Layer 2

CONSTRUCTION,
    CZ_Public&Industrial_2015_IntWall,    !- Name
    Brick,                    !- Outside Layer
    Brick;                    !- Layer 2

CONSTRUCTION,
    HSCWZ_Public&Industrial_1980_Roof,    !- Name
    AsphaltFelt,              !- Outside Layer
    Concrete,                 !- Layer 2
    Insulation 0.022;         !- Layer 3

CONSTRUCTION,
    HSCWZ_Public&Industrial_1995_Roof,    !- Name
    AsphaltFelt,              !- Outside Layer
    Concrete,                 !- Layer 2
    Insulation 0.022;         !- Layer 3

CONSTRUCTION,
    HSCWZ_Public&Industrial_2005_Roof,    !- Name
    AsphaltFelt,              !- Outside Layer
    Concrete,                 !- Layer 2
    Insulation 0.022;         !- Layer 3

CONSTRUCTION,
    HSCWZ_Public&Industrial_2015_Roof,    !- Name
    AsphaltFelt,              !- Outside Layer
    Concrete,                 !- Layer 2
    Insulation 0.022;         !- Layer 3

CONSTRUCTION,
    HSCWZ_Public&Industrial_1980_ExtWall,    !- Name
    Brick,                    !- Outside Layer
    Concrete,                 !- Layer 2
    Insulation 0.011;         !- Layer 3

CONSTRUCTION,
    HSCWZ_Public&Industrial_1995_ExtWall,    !- Name
    Brick,                    !- Outside Layer
    Concrete,                 !- Layer 2
    Insulation 0.011;         !- Layer 3

CONSTRUCTION,
    HSCWZ_Public&Industrial_2005_ExtWall,    !- Name
    Brick,                    !- Outside Layer
    Concrete,                 !- Layer 2
    Insulation 0.011;         !- Layer 3

CONSTRUCTION,
    HSCWZ_Public&Industrial_2015_ExtWall,    !- Name
    Brick,                    !- Outside Layer
    Concrete,                 !- Layer 2
    Insulation 0.011;         !- Layer 3

CONSTRUCTION,
    HSCWZ_Public&Industrial_1980_IntWall,    !- Name
    Brick,                    !- Outside Layer
    Brick;                    !- Layer 2

CONSTRUCTION,
    HSCWZ_Public&Industrial_1995_IntWall,    !- Name
    Brick,                    !- Outside Layer
    Brick;                    !- Layer 2

CONSTRUCTION,
    HSCWZ_Public&Industrial_2005_IntWall,    !- Name
    Brick,                    !- Outside Layer
    Brick;                    !- Layer 2

CONSTRUCTION,
    HSCWZ_Public&Industrial_2015_IntWall,    !- Name
    Brick,                    !- Outside Layer
    Brick;                    !- Layer 2

CONSTRUCTION,
    HSWWZ_Public&Industrial_1980_Roof,    !- Name
    AsphaltFelt,              !- Outside Layer
    Concrete,                 !- Layer 2
    Insulation 0.016;         !- Layer 3

CONSTRUCTION,
    HSWWZ_Public&Industrial_1995_Roof,    !- Name
    AsphaltFelt,              !- Outside Layer
    Concrete,                 !- Layer 2
    Insulation 0.016;         !- Layer 3

CONSTRUCTION,
    HSWWZ_Public&Industrial_2005_Roof,    !- Name
    AsphaltFelt,              !- Outside Layer
    Concrete,                 !- Layer 2
    Insulation 0.016;         !- Layer 3

CONSTRUCTION,
    HSWWZ_Public&Industrial_2015_Roof,    !- Name
    AsphaltFelt,              !- Outside Layer
    Concrete,                 !- Layer 2
    Insulation 0.016;         !- Layer 3

CONSTRUCTION,
    HSWWZ_Public&Industrial_1980_ExtWall,    !- Name
    Brick,                    !- Outside Layer
    Concrete,                 !- Layer 2
    Insulation 0.007;         !- Layer 3

CONSTRUCTION,
    HSWWZ_Public&Industrial_1995_ExtWall,    !- Name
    Brick,                    !- Outside Layer
    Concrete,                 !- Layer 2
    Insulation 0.007;         !- Layer 3

CONSTRUCTION,
    HSWWZ_Public&Industrial_2005_ExtWall,    !- Name
    Brick,                    !- Outside Layer
    Concrete,                 !- Layer 2
    Insulation 0.007;         !- Layer 3

CONSTRUCTION,
    HSWWZ_Public&Industrial_2015_ExtWall,    !- Name
    Brick,                    !- Outside Layer
    Concrete,                 !- Layer 2
    Insulation 0.007;         !- Layer 3

CONSTRUCTION,
    HSWWZ_Public&Industrial_1980_IntWall,    !- Name
    Brick,                    !- Outside Layer
    Brick;                    !- Layer 2

CONSTRUCTION,
    HSWWZ_Public&Industrial_1995_IntWall,    !- Name
    Brick,                    !- Outside Layer
    Brick;                    !- Layer 2

CONSTRUCTION,
    HSWWZ_Public&Industrial_2005_IntWall,    !- Name
    Brick,                    !- Outside Layer
    Brick;                    !- Layer 2

CONSTRUCTION,
    HSWWZ_Public&Industrial_2015_IntWall,    !- Name
    Brick,                    !- Outside Layer
    Brick;                    !- Layer 2

CONSTRUCTION,
    TZ_Public&Industrial_1980_Roof,    !- Name
    AsphaltFelt,              !- Outside Layer
    Concrete,                 !- Layer 2
    Insulation 0.012;         !- Layer 3

CONSTRUCTION,
    TZ_Public&Industrial_1995_Roof,    !- Name
    AsphaltFelt,              !- Outside Layer
    Concrete,                 !- Layer 2
    Insulation 0.012;         !- Layer 3

CONSTRUCTION,
    TZ_Public&Industrial_2005_Roof,    !- Name
    AsphaltFelt,              !- Outside Layer
    Concrete,                 !- Layer 2
    Insulation 0.012;         !- Layer 3

CONSTRUCTION,
    TZ_Public&Industrial_2015_Roof,    !- Name
    AsphaltFelt,              !- Outside Layer
    Concrete,                 !- Layer 2
    Insulation 0.012;         !- Layer 3

CONSTRUCTION,
    TZ_Public&Industrial_1980_ExtWall,    !- Name
    Brick,                    !- Outside Layer
    Concrete,                 !- Layer 2
    Insulation 0.004;         !- Layer 3

CONSTRUCTION,
    TZ_Public&Industrial_1995_ExtWall,    !- Name
    Brick,                    !- Outside Layer
    Concrete,                 !- Layer 2
    Insulation 0.004;         !- Layer 3

CONSTRUCTION,
    TZ_Public&Industrial_2005_ExtWall,    !- Name
    Brick,                    !- Outside Layer
    Concrete,                 !- Layer 2
    Insulation 0.004;         !- Layer 3

CONSTRUCTION,
    TZ_Public&Industrial_2015_ExtWall,    !- Name
    Brick,                    !- Outside Layer
    Concrete,                 !- Layer 2
    Insulation 0.004;         !- Layer 3

CONSTRUCTION,
    TZ_Public&Industrial_1980_IntWall,    !- Name
    Brick,                    !- Outside Layer
    Brick;                    !- Layer 2

CONSTRUCTION,
    TZ_Public&Industrial_1995_IntWall,    !- Name
    Brick,                    !- Outside Layer
    Brick;                    !- Layer 2

CONSTRUCTION,
    TZ_Public&Industrial_2005_IntWall,    !- Name
    Brick,                    !- Outside Layer
    Brick;                    !- Layer 2

CONSTRUCTION,
    TZ_Public&Industrial_2015_IntWall,    !- Name
    Brick,                    !- Outside Layer
    Brick;                    !- Layer 2

GLOBALGEOMETRYRULES,
    UpperRightCorner,         !- Starting Vertex Position
    Counterclockwise,         !- Vertex Entry Direction
    Relative,                 !- Coordinate System
    Relative,                 !- Daylighting Reference Point Coordinate System
    Relative;                 !- Rectangular Surface Coordinate System

ZONE,
    Block Poly_9_Transport Storey 0,    !- Name
    0,                        !- Direction of Relative North
    0,                        !- X Origin
    0,                        !- Y Origin
    0,                        !- Z Origin
    1,                        !- Type
    1,                        !- Multiplier
    autocalculate,            !- Ceiling Height
    autocalculate,            !- Volume
    autocalculate,            !- Floor Area
    ,                         !- Zone Inside Convection Algorithm
    ,                         !- Zone Outside Convection Algorithm
    Yes;                      !- Part of Total Floor Area

ZONE,
    Block Poly_9_Transport Storey 1,    !- Name
    0,                        !- Direction of Relative North
    0,                        !- X Origin
    0,                        !- Y Origin
    0,                        !- Z Origin
    1,                        !- Type
    1,                        !- Multiplier
    autocalculate,            !- Ceiling Height
    autocalculate,            !- Volume
    autocalculate,            !- Floor Area
    ,                         !- Zone Inside Convection Algorithm
    ,                         !- Zone Outside Convection Algorithm
    Yes;                      !- Part of Total Floor Area

BUILDINGSURFACE:DETAILED,
    Block Poly_9_Transport Storey 0 Wall 0001,    !- Name
    Wall,                     !- Surface Type
    HSCWZ_Public&Industrial_2015_ExtWall,    !- Construction Name
    Block Poly_9_Transport Storey 0,    !- Zone Name
    ,                         !- Space Name
    Outdoors,                 !- Outside Boundary Condition
    ,                         !- Outside Boundary Condition Object
    SunExposed,               !- Sun Exposure
    WindExposed,              !- Wind Exposure
    autocalculate,            !- View Factor to Ground
    autocalculate,            !- Number of Vertices
    25.62365947704529,        !- Vertex 1 Xcoordinate
    72.46806353610009,        !- Vertex 1 Ycoordinate
    3,                        !- Vertex 1 Zcoordinate
    25.62365947704529,        !- Vertex 2 Xcoordinate
    72.46806353610009,        !- Vertex 2 Ycoordinate
    0,                        !- Vertex 2 Zcoordinate
    20.91619024181273,        !- Vertex 3 Xcoordinate
    69.87468394590542,        !- Vertex 3 Ycoordinate
    0,                        !- Vertex 3 Zcoordinate
    20.91619024181273,        !- Vertex 4 Xcoordinate
    69.87468394590542,        !- Vertex 4 Ycoordinate
    3;                        !- Vertex 4 Zcoordinate

BUILDINGSURFACE:DETAILED,
    Block Poly_9_Transport Storey 0 Wall 0002,    !- Name
    Wall,                     !- Surface Type
    HSCWZ_Public&Industrial_2015_ExtWall,    !- Construction Name
    Block Poly_9_Transport Storey 0,    !- Zone Name
    ,                         !- Space Name
    Outdoors,                 !- Outside Boundary Condition
    ,                         !- Outside Boundary Condition Object
    SunExposed,               !- Sun Exposure
    WindExposed,              !- Wind Exposure
    autocalculate,            !- View Factor to Ground
    autocalculate,            !- Number of Vertices
    20.91619024181273,        !- Vertex 1 Xcoordinate
    69.87468394590542,        !- Vertex 1 Ycoordinate
    3,                        !- Vertex 1 Zcoordinate
    20.91619024181273,        !- Vertex 2 Xcoordinate
    69.87468394590542,        !- Vertex 2 Ycoordinate
    0,                        !- Vertex 2 Zcoordinate
    16.856681434088387,       !- Vertex 3 Xcoordinate
    65.94155849935487,        !- Vertex 3 Ycoordinate
    0,                        !- Vertex 3 Zcoordinate
    16.856681434088387,       !- Vertex 4 Xcoordinate
    65.94155849935487,        !- Vertex 4 Ycoordinate
    3;                        !- Vertex 4 Zcoordinate

BUILDINGSURFACE:DETAILED,
    Block Poly_9_Transport Storey 0 Wall 0003,    !- Name
    Wall,                     !- Surface Type
    HSCWZ_Public&Industrial_2015_ExtWall,    !- Construction Name
    Block Poly_9_Transport Storey 0,    !- Zone Name
    ,                         !- Space Name
    Outdoors,                 !- Outside Boundary Condition
    ,                         !- Outside Boundary Condition Object
    SunExposed,               !- Sun Exposure
    WindExposed,              !- Wind Exposure
    autocalculate,            !- View Factor to Ground
    autocalculate,            !- Number of Vertices
    16.856681434088387,       !- Vertex 1 Xcoordinate
    65.94155849935487,        !- Vertex 1 Ycoordinate
    3,                        !- Vertex 1 Zcoordinate
    16.856681434088387,       !- Vertex 2 Xcoordinate
    65.94155849935487,        !- Vertex 2 Ycoordinate
    0,                        !- Vertex 2 Zcoordinate
    13.548375225393102,       !- Vertex 3 Xcoordinate
    61.22156073339284,        !- Vertex 3 Ycoordinate
    0,                        !- Vertex 3 Zcoordinate
    13.548375225393102,       !- Vertex 4 Xcoordinate
    61.22156073339284,        !- Vertex 4 Ycoordinate
    3;                        !- Vertex 4 Zcoordinate

BUILDINGSURFACE:DETAILED,
    Block Poly_9_Transport Storey 0 Wall 0004,    !- Name
    Wall,                     !- Surface Type
    HSCWZ_Public&Industrial_2015_ExtWall,    !- Construction Name
    Block Poly_9_Transport Storey 0,    !- Zone Name
    ,                         !- Space Name
    Outdoors,                 !- Outside Boundary Condition
    ,                         !- Outside Boundary Condition Object
    SunExposed,               !- Sun Exposure
    WindExposed,              !- Wind Exposure
    autocalculate,            !- View Factor to Ground
    autocalculate,            !- Number of Vertices
    13.548375225393102,       !- Vertex 1 Xcoordinate
    61.22156073339284,        !- Vertex 1 Ycoordinate
    3,                        !- Vertex 1 Zcoordinate
    13.548375225393102,       !- Vertex 2 Xcoordinate
    61.22156073339284,        !- Vertex 2 Ycoordinate
    0,                        !- Vertex 2 Zcoordinate
    10.787966293166392,       !- Vertex 3 Xcoordinate
    54.83063793834299,        !- Vertex 3 Ycoordinate
    0,                        !- Vertex 3 Zcoordinate
    10.787966293166392,       !- Vertex 4 Xcoordinate
    54.83063793834299,        !- Vertex 4 Ycoordinate
    3;                        !- Vertex 4 Zcoordinate

BUILDINGSURFACE:DETAILED,
    Block Poly_9_Transport Storey 0 Wall 0005,    !- Name
    Wall,                     !- Surface Type
    HSCWZ_Public&Industrial_2015_ExtWall,    !- Construction Name
    Block Poly_9_Transport Storey 0,    !- Zone Name
    ,                         !- Space Name
    Outdoors,                 !- Outside Boundary Condition
    ,                         !- Outside Boundary Condition Object
    SunExposed,               !- Sun Exposure
    WindExposed,              !- Wind Exposure
    autocalculate,            !- View Factor to Ground
    autocalculate,            !- Number of Vertices
    10.787966293166392,       !- Vertex 1 Xcoordinate
    54.83063793834299,        !- Vertex 1 Ycoordinate
    3,                        !- Vertex 1 Zcoordinate
    10.787966293166392,       !- Vertex 2 Xcoordinate
    54.83063793834299,        !- Vertex 2 Ycoordinate
    0,                        !- Vertex 2 Zcoordinate
    4.317641494097188,        !- Vertex 3 Xcoordinate
    55.58868662174791,        !- Vertex 3 Ycoordinate
    0,                        !- Vertex 3 Zcoordinate
    4.317641494097188,        !- Vertex 4 Xcoordinate
    55.58868662174791,        !- Vertex 4 Ycoordinate
    3;                        !- Vertex 4 Zcoordinate

BUILDINGSURFACE:DETAILED,
    Block Poly_9_Transport Storey 0 Wall 0006,    !- Name
    Wall,                     !- Surface Type
    HSCWZ_Public&Industrial_2015_ExtWall,    !- Construction Name
    Block Poly_9_Transport Storey 0,    !- Zone Name
    ,                         !- Space Name
    Outdoors,                 !- Outside Boundary Condition
    ,                         !- Outside Boundary Condition Object
    SunExposed,               !- Sun Exposure
    WindExposed,              !- Wind Exposure
    autocalculate,            !- View Factor to Ground
    autocalculate,            !- Number of Vertices
    4.317641494097188,        !- Vertex 1 Xcoordinate
    55.58868662174791,        !- Vertex 1 Ycoordinate
    3,                        !- Vertex 1 Zcoordinate
    4.317641494097188,        !- Vertex 2 Xcoordinate
    55.58868662174791,        !- Vertex 2 Ycoordinate
    0,                        !- Vertex 2 Zcoordinate
    0,                        !- Vertex 3 Xcoordinate
    7.089099625125527,        !- Vertex 3 Ycoordinate
    0,                        !- Vertex 3 Zcoordinate
    0,                        !- Vertex 4 Xcoordinate
    7.089099625125527,        !- Vertex 4 Ycoordinate
    3;                        !- Vertex 4 Zcoordinate

BUILDINGSURFACE:DETAILED,
    Block Poly_9_Transport Storey 0 Wall 0007,    !- Name
    Wall,                     !- Surface Type
    HSCWZ_Public&Industrial_2015_ExtWall,    !- Construction Name
    Block Poly_9_Transport Storey 0,    !- Zone Name
    ,                         !- Space Name
    Outdoors,                 !- Outside Boundary Condition
    ,                         !- Outside Boundary Condition Object
    SunExposed,               !- Sun Exposure
    WindExposed,              !- Wind Exposure
    autocalculate,            !- View Factor to Ground
    autocalculate,            !- Number of Vertices
    0,                        !- Vertex 1 Xcoordinate
    7.089099625125527,        !- Vertex 1 Ycoordinate
    3,                        !- Vertex 1 Zcoordinate
    0,                        !- Vertex 2 Xcoordinate
    7.089099625125527,        !- Vertex 2 Ycoordinate
    0,                        !- Vertex 2 Zcoordinate
    61.37469498935389,        !- Vertex 3 Xcoordinate
    0,                        !- Vertex 3 Ycoordinate
    0,                        !- Vertex 3 Zcoordinate
    61.37469498935389,        !- Vertex 4 Xcoordinate
    0,                        !- Vertex 4 Ycoordinate
    3;                        !- Vertex 4 Zcoordinate

BUILDINGSURFACE:DETAILED,
    Block Poly_9_Transport Storey 0 Wall 0008,    !- Name
    Wall,                     !- Surface Type
    HSCWZ_Public&Industrial_2015_ExtWall,    !- Construction Name
    Block Poly_9_Transport Storey 0,    !- Zone Name
    ,                         !- Space Name
    Outdoors,                 !- Outside Boundary Condition
    ,                         !- Outside Boundary Condition Object
    SunExposed,               !- Sun Exposure
    WindExposed,              !- Wind Exposure
    autocalculate,            !- View Factor to Ground
    autocalculate,            !- Number of Vertices
    61.37469498935389,        !- Vertex 1 Xcoordinate
    0,                        !- Vertex 1 Ycoordinate
    3,                        !- Vertex 1 Zcoordinate
    61.37469498935389,        !- Vertex 2 Xcoordinate
    0,                        !- Vertex 2 Ycoordinate
    0,                        !- Vertex 2 Zcoordinate
    65.69205357984174,        !- Vertex 3 Xcoordinate
    48.4996007271111,         !- Vertex 3 Ycoordinate
    0,                        !- Vertex 3 Zcoordinate
    65.69205357984174,        !- Vertex 4 Xcoordinate
    48.4996007271111,         !- Vertex 4 Ycoordinate
    3;                        !- Vertex 4 Zcoordinate

BUILDINGSURFACE:DETAILED,
    Block Poly_9_Transport Storey 0 Wall 0009,    !- Name
    Wall,                     !- Surface Type
    HSCWZ_Public&Industrial_2015_ExtWall,    !- Construction Name
    Block Poly_9_Transport Storey 0,    !- Zone Name
    ,                         !- Space Name
    Outdoors,                 !- Outside Boundary Condition
    ,                         !- Outside Boundary Condition Object
    SunExposed,               !- Sun Exposure
    WindExposed,              !- Wind Exposure
    autocalculate,            !- View Factor to Ground
    autocalculate,            !- Number of Vertices
    65.69205357984174,        !- Vertex 1 Xcoordinate
    48.4996007271111,         !- Vertex 1 Ycoordinate
    3,                        !- Vertex 1 Zcoordinate
    65.69205357984174,        !- Vertex 2 Xcoordinate
    48.4996007271111,         !- Vertex 2 Ycoordinate
    0,                        !- Vertex 2 Zcoordinate
    60.17305490840226,        !- Vertex 3 Xcoordinate
    49.13310143304989,        !- Vertex 3 Ycoordinate
    0,                        !- Vertex 3 Zcoordinate
    60.17305490840226,        !- Vertex 4 Xcoordinate
    49.13310143304989,        !- Vertex 4 Ycoordinate
    3;                        !- Vertex 4 Zcoordinate

BUILDINGSURFACE:DETAILED,
    Block Poly_9_Transport Storey 0 Wall 0010,    !- Name
    Wall,                     !- Surface Type
    HSCWZ_Public&Industrial_2015_ExtWall,    !- Construction Name
    Block Poly_9_Transport Storey 0,    !- Zone Name
    ,                         !- Space Name
    Outdoors,                 !- Outside Boundary Condition
    ,                         !- Outside Boundary Condition Object
    SunExposed,               !- Sun Exposure
    WindExposed,              !- Wind Exposure
    autocalculate,            !- View Factor to Ground
    autocalculate,            !- Number of Vertices
    60.17305490840226,        !- Vertex 1 Xcoordinate
    49.13310143304989,        !- Vertex 1 Ycoordinate
    3,                        !- Vertex 1 Zcoordinate
    60.17305490840226,        !- Vertex 2 Xcoordinate
    49.13310143304989,        !- Vertex 2 Ycoordinate
    0,                        !- Vertex 2 Zcoordinate
    58.108509029319976,       !- Vertex 3 Xcoordinate
    58.03239233093336,        !- Vertex 3 Ycoordinate
    0,                        !- Vertex 3 Zcoordinate
    58.108509029319976,       !- Vertex 4 Xcoordinate
    58.03239233093336,        !- Vertex 4 Ycoordinate
    3;                        !- Vertex 4 Zcoordinate

BUILDINGSURFACE:DETAILED,
    Block Poly_9_Transport Storey 0 Wall 0011,    !- Name
    Wall,                     !- Surface Type
    HSCWZ_Public&Industrial_2015_ExtWall,    !- Construction Name
    Block Poly_9_Transport Storey 0,    !- Zone Name
    ,                         !- Space Name
    Outdoors,                 !- Outside Boundary Condition
    ,                         !- Outside Boundary Condition Object
    SunExposed,               !- Sun Exposure
    WindExposed,              !- Wind Exposure
    autocalculate,            !- View Factor to Ground
    autocalculate,            !- Number of Vertices
    58.108509029319976,       !- Vertex 1 Xcoordinate
    58.03239233093336,        !- Vertex 1 Ycoordinate
    3,                        !- Vertex 1 Zcoordinate
    58.108509029319976,       !- Vertex 2 Xcoordinate
    58.03239233093336,        !- Vertex 2 Ycoordinate
    0,                        !- Vertex 2 Zcoordinate
    55.98355824605096,        !- Vertex 3 Xcoordinate
    62.71945048309863,        !- Vertex 3 Ycoordinate
    0,                        !- Vertex 3 Zcoordinate
    55.98355824605096,        !- Vertex 4 Xcoordinate
    62.71945048309863,        !- Vertex 4 Ycoordinate
    3;                        !- Vertex 4 Zcoordinate

BUILDINGSURFACE:DETAILED,
    Block Poly_9_Transport Storey 0 Wall 0012,    !- Name
    Wall,                     !- Surface Type
    HSCWZ_Public&Industrial_2015_ExtWall,    !- Construction Name
    Block Poly_9_Transport Storey 0,    !- Zone Name
    ,                         !- Space Name
    Outdoors,                 !- Outside Boundary Condition
    ,                         !- Outside Boundary Condition Object
    SunExposed,               !- Sun Exposure
    WindExposed,              !- Wind Exposure
    autocalculate,            !- View Factor to Ground
    autocalculate,            !- Number of Vertices
    55.98355824605096,        !- Vertex 1 Xcoordinate
    62.71945048309863,        !- Vertex 1 Ycoordinate
    3,                        !- Vertex 1 Zcoordinate
    55.98355824605096,        !- Vertex 2 Xcoordinate
    62.71945048309863,        !- Vertex 2 Ycoordinate
    0,                        !- Vertex 2 Zcoordinate
    53.55683606606908,        !- Vertex 3 Xcoordinate
    66.30212658410892,        !- Vertex 3 Ycoordinate
    0,                        !- Vertex 3 Zcoordinate
    53.55683606606908,        !- Vertex 4 Xcoordinate
    66.30212658410892,        !- Vertex 4 Ycoordinate
    3;                        !- Vertex 4 Zcoordinate

BUILDINGSURFACE:DETAILED,
    Block Poly_9_Transport Storey 0 Wall 0013,    !- Name
    Wall,                     !- Surface Type
    HSCWZ_Public&Industrial_2015_ExtWall,    !- Construction Name
    Block Poly_9_Transport Storey 0,    !- Zone Name
    ,                         !- Space Name
    Outdoors,                 !- Outside Boundary Condition
    ,                         !- Outside Boundary Condition Object
    SunExposed,               !- Sun Exposure
    WindExposed,              !- Wind Exposure
    autocalculate,            !- View Factor to Ground
    autocalculate,            !- Number of Vertices
    53.55683606606908,        !- Vertex 1 Xcoordinate
    66.30212658410892,        !- Vertex 1 Ycoordinate
    3,                        !- Vertex 1 Zcoordinate
    53.55683606606908,        !- Vertex 2 Xcoordinate
    66.30212658410892,        !- Vertex 2 Ycoordinate
    0,                        !- Vertex 2 Zcoordinate
    50.08031381655019,        !- Vertex 3 Xcoordinate
    69.78898835740983,        !- Vertex 3 Ycoordinate
    0,                        !- Vertex 3 Zcoordinate
    50.08031381655019,        !- Vertex 4 Xcoordinate
    69.78898835740983,        !- Vertex 4 Ycoordinate
    3;                        !- Vertex 4 Zcoordinate

BUILDINGSURFACE:DETAILED,
    Block Poly_9_Transport Storey 0 Wall 0014,    !- Name
    Wall,                     !- Surface Type
    HSCWZ_Public&Industrial_2015_ExtWall,    !- Construction Name
    Block Poly_9_Transport Storey 0,    !- Zone Name
    ,                         !- Space Name
    Outdoors,                 !- Outside Boundary Condition
    ,                         !- Outside Boundary Condition Object
    SunExposed,               !- Sun Exposure
    WindExposed,              !- Wind Exposure
    autocalculate,            !- View Factor to Ground
    autocalculate,            !- Number of Vertices
    50.08031381655019,        !- Vertex 1 Xcoordinate
    69.78898835740983,        !- Vertex 1 Ycoordinate
    3,                        !- Vertex 1 Zcoordinate
    50.08031381655019,        !- Vertex 2 Xcoordinate
    69.78898835740983,        !- Vertex 2 Ycoordinate
    0,                        !- Vertex 2 Zcoordinate
    41.465976755542215,       !- Vertex 3 Xcoordinate
    73.90389566635713,        !- Vertex 3 Ycoordinate
    0,                        !- Vertex 3 Zcoordinate
    41.465976755542215,       !- Vertex 4 Xcoordinate
    73.90389566635713,        !- Vertex 4 Ycoordinate
    3;                        !- Vertex 4 Zcoordinate

BUILDINGSURFACE:DETAILED,
    Block Poly_9_Transport Storey 0 Wall 0015,    !- Name
    Wall,                     !- Surface Type
    HSCWZ_Public&Industrial_2015_ExtWall,    !- Construction Name
    Block Poly_9_Transport Storey 0,    !- Zone Name
    ,                         !- Space Name
    Outdoors,                 !- Outside Boundary Condition
    ,                         !- Outside Boundary Condition Object
    SunExposed,               !- Sun Exposure
    WindExposed,              !- Wind Exposure
    autocalculate,            !- View Factor to Ground
    autocalculate,            !- Number of Vertices
    41.465976755542215,       !- Vertex 1 Xcoordinate
    73.90389566635713,        !- Vertex 1 Ycoordinate
    3,                        !- Vertex 1 Zcoordinate
    41.465976755542215,       !- Vertex 2 Xcoordinate
    73.90389566635713,        !- Vertex 2 Ycoordinate
    0,                        !- Vertex 2 Zcoordinate
    30.888568294467404,       !- Vertex 3 Xcoordinate
    74.05560978408903,        !- Vertex 3 Ycoordinate
    0,                        !- Vertex 3 Zcoordinate
    30.888568294467404,       !- Vertex 4 Xcoordinate
    74.05560978408903,        !- Vertex 4 Ycoordinate
    3;                        !- Vertex 4 Zcoordinate

BUILDINGSURFACE:DETAILED,
    Block Poly_9_Transport Storey 0 Wall 0016,    !- Name
    Wall,                     !- Surface Type
    HSCWZ_Public&Industrial_2015_ExtWall,    !- Construction Name
    Block Poly_9_Transport Storey 0,    !- Zone Name
    ,                         !- Space Name
    Outdoors,                 !- Outside Boundary Condition
    ,                         !- Outside Boundary Condition Object
    SunExposed,               !- Sun Exposure
    WindExposed,              !- Wind Exposure
    autocalculate,            !- View Factor to Ground
    autocalculate,            !- Number of Vertices
    30.888568294467404,       !- Vertex 1 Xcoordinate
    74.05560978408903,        !- Vertex 1 Ycoordinate
    3,                        !- Vertex 1 Zcoordinate
    30.888568294467404,       !- Vertex 2 Xcoordinate
    74.05560978408903,        !- Vertex 2 Ycoordinate
    0,                        !- Vertex 2 Zcoordinate
    29.822759653558023,       !- Vertex 3 Xcoordinate
    66.19905215222389,        !- Vertex 3 Ycoordinate
    0,                        !- Vertex 3 Zcoordinate
    29.822759653558023,       !- Vertex 4 Xcoordinate
    66.19905215222389,        !- Vertex 4 Ycoordinate
    3;                        !- Vertex 4 Zcoordinate

BUILDINGSURFACE:DETAILED,
    Block Poly_9_Transport Storey 0 Wall 0017,    !- Name
    Wall,                     !- Surface Type
    HSCWZ_Public&Industrial_2015_ExtWall,    !- Construction Name
    Block Poly_9_Transport Storey 0,    !- Zone Name
    ,                         !- Space Name
    Outdoors,                 !- Outside Boundary Condition
    ,                         !- Outside Boundary Condition Object
    SunExposed,               !- Sun Exposure
    WindExposed,              !- Wind Exposure
    autocalculate,            !- View Factor to Ground
    autocalculate,            !- Number of Vertices
    29.822759653558023,       !- Vertex 1 Xcoordinate
    66.19905215222389,        !- Vertex 1 Ycoordinate
    3,                        !- Vertex 1 Zcoordinate
    29.822759653558023,       !- Vertex 2 Xcoordinate
    66.19905215222389,        !- Vertex 2 Ycoordinate
    0,                        !- Vertex 2 Zcoordinate
    41.25462466047611,        !- Vertex 3 Xcoordinate
    65.8133400301449,         !- Vertex 3 Ycoordinate
    0,                        !- Vertex 3 Zcoordinate
    41.25462466047611,        !- Vertex 4 Xcoordinate
    65.8133400301449,         !- Vertex 4 Ycoordinate
    3;                        !- Vertex 4 Zcoordinate

BUILDINGSURFACE:DETAILED,
    Block Poly_9_Transport Storey 0 Wall 0018,    !- Name
    Wall,                     !- Surface Type
    HSCWZ_Public&Industrial_2015_ExtWall,    !- Construction Name
    Block Poly_9_Transport Storey 0,    !- Zone Name
    ,                         !- Space Name
    Outdoors,                 !- Outside Boundary Condition
    ,                         !- Outside Boundary Condition Object
    SunExposed,               !- Sun Exposure
    WindExposed,              !- Wind Exposure
    autocalculate,            !- View Factor to Ground
    autocalculate,            !- Number of Vertices
    41.25462466047611,        !- Vertex 1 Xcoordinate
    65.8133400301449,         !- Vertex 1 Ycoordinate
    3,                        !- Vertex 1 Zcoordinate
    41.25462466047611,        !- Vertex 2 Xcoordinate
    65.8133400301449,         !- Vertex 2 Ycoordinate
    0,                        !- Vertex 2 Zcoordinate
    45.225093919900246,       !- Vertex 3 Xcoordinate
    63.53897249838337,        !- Vertex 3 Ycoordinate
    0,                        !- Vertex 3 Zcoordinate
    45.225093919900246,       !- Vertex 4 Xcoordinate
    63.53897249838337,        !- Vertex 4 Ycoordinate
    3;                        !- Vertex 4 Zcoordinate

BUILDINGSURFACE:DETAILED,
    Block Poly_9_Transport Storey 0 Wall 0019,    !- Name
    Wall,                     !- Surface Type
    HSCWZ_Public&Industrial_2015_ExtWall,    !- Construction Name
    Block Poly_9_Transport Storey 0,    !- Zone Name
    ,                         !- Space Name
    Outdoors,                 !- Outside Boundary Condition
    ,                         !- Outside Boundary Condition Object
    SunExposed,               !- Sun Exposure
    WindExposed,              !- Wind Exposure
    autocalculate,            !- View Factor to Ground
    autocalculate,            !- Number of Vertices
    45.225093919900246,       !- Vertex 1 Xcoordinate
    63.53897249838337,        !- Vertex 1 Ycoordinate
    3,                        !- Vertex 1 Zcoordinate
    45.225093919900246,       !- Vertex 2 Xcoordinate
    63.53897249838337,        !- Vertex 2 Ycoordinate
    0,                        !- Vertex 2 Zcoordinate
    48.97795445122756,        !- Vertex 3 Xcoordinate
    59.382919657509774,       !- Vertex 3 Ycoordinate
    0,                        !- Vertex 3 Zcoordinate
    48.97795445122756,        !- Vertex 4 Xcoordinate
    59.382919657509774,       !- Vertex 4 Ycoordinate
    3;                        !- Vertex 4 Zcoordinate

BUILDINGSURFACE:DETAILED,
    Block Poly_9_Transport Storey 0 Wall 0020,    !- Name
    Wall,                     !- Surface Type
    HSCWZ_Public&Industrial_2015_ExtWall,    !- Construction Name
    Block Poly_9_Transport Storey 0,    !- Zone Name
    ,                         !- Space Name
    Outdoors,                 !- Outside Boundary Condition
    ,                         !- Outside Boundary Condition Object
    SunExposed,               !- Sun Exposure
    WindExposed,              !- Wind Exposure
    autocalculate,            !- View Factor to Ground
    autocalculate,            !- Number of Vertices
    48.97795445122756,        !- Vertex 1 Xcoordinate
    59.382919657509774,       !- Vertex 1 Ycoordinate
    3,                        !- Vertex 1 Zcoordinate
    48.97795445122756,        !- Vertex 2 Xcoordinate
    59.382919657509774,       !- Vertex 2 Ycoordinate
    0,                        !- Vertex 2 Zcoordinate
    51.68101477972232,        !- Vertex 3 Xcoordinate
    55.13105311105028,        !- Vertex 3 Ycoordinate
    0,                        !- Vertex 3 Zcoordinate
    51.68101477972232,        !- Vertex 4 Xcoordinate
    55.13105311105028,        !- Vertex 4 Ycoordinate
    3;                        !- Vertex 4 Zcoordinate

BUILDINGSURFACE:DETAILED,
    Block Poly_9_Transport Storey 0 Wall 0021,    !- Name
    Wall,                     !- Surface Type
    HSCWZ_Public&Industrial_2015_ExtWall,    !- Construction Name
    Block Poly_9_Transport Storey 0,    !- Zone Name
    ,                         !- Space Name
    Outdoors,                 !- Outside Boundary Condition
    ,                         !- Outside Boundary Condition Object
    SunExposed,               !- Sun Exposure
    WindExposed,              !- Wind Exposure
    autocalculate,            !- View Factor to Ground
    autocalculate,            !- Number of Vertices
    51.68101477972232,        !- Vertex 1 Xcoordinate
    55.13105311105028,        !- Vertex 1 Ycoordinate
    3,                        !- Vertex 1 Zcoordinate
    51.68101477972232,        !- Vertex 2 Xcoordinate
    55.13105311105028,        !- Vertex 2 Ycoordinate
    0,                        !- Vertex 2 Zcoordinate
    53.32155594439246,        !- Vertex 3 Xcoordinate
    49.89658603863791,        !- Vertex 3 Ycoordinate
    0,                        !- Vertex 3 Zcoordinate
    53.32155594439246,        !- Vertex 4 Xcoordinate
    49.89658603863791,        !- Vertex 4 Ycoordinate
    3;                        !- Vertex 4 Zcoordinate

BUILDINGSURFACE:DETAILED,
    Block Poly_9_Transport Storey 0 Wall 0022,    !- Name
    Wall,                     !- Surface Type
    HSCWZ_Public&Industrial_2015_ExtWall,    !- Construction Name
    Block Poly_9_Transport Storey 0,    !- Zone Name
    ,                         !- Space Name
    Outdoors,                 !- Outside Boundary Condition
    ,                         !- Outside Boundary Condition Object
    SunExposed,               !- Sun Exposure
    WindExposed,              !- Wind Exposure
    autocalculate,            !- View Factor to Ground
    autocalculate,            !- Number of Vertices
    53.32155594439246,        !- Vertex 1 Xcoordinate
    49.89658603863791,        !- Vertex 1 Ycoordinate
    3,                        !- Vertex 1 Zcoordinate
    53.32155594439246,        !- Vertex 2 Xcoordinate
    49.89658603863791,        !- Vertex 2 Ycoordinate
    0,                        !- Vertex 2 Zcoordinate
    18.971960503724404,       !- Vertex 3 Xcoordinate
    53.93713990552351,        !- Vertex 3 Ycoordinate
    0,                        !- Vertex 3 Zcoordinate
    18.971960503724404,       !- Vertex 4 Xcoordinate
    53.93713990552351,        !- Vertex 4 Ycoordinate
    3;                        !- Vertex 4 Zcoordinate

BUILDINGSURFACE:DETAILED,
    Block Poly_9_Transport Storey 0 Wall 0023,    !- Name
    Wall,                     !- Surface Type
    HSCWZ_Public&Industrial_2015_ExtWall,    !- Construction Name
    Block Poly_9_Transport Storey 0,    !- Zone Name
    ,                         !- Space Name
    Outdoors,                 !- Outside Boundary Condition
    ,                         !- Outside Boundary Condition Object
    SunExposed,               !- Sun Exposure
    WindExposed,              !- Wind Exposure
    autocalculate,            !- View Factor to Ground
    autocalculate,            !- Number of Vertices
    18.971960503724404,       !- Vertex 1 Xcoordinate
    53.93713990552351,        !- Vertex 1 Ycoordinate
    3,                        !- Vertex 1 Zcoordinate
    18.971960503724404,       !- Vertex 2 Xcoordinate
    53.93713990552351,        !- Vertex 2 Ycoordinate
    0,                        !- Vertex 2 Zcoordinate
    21.232053027837537,       !- Vertex 3 Xcoordinate
    58.672175428364426,       !- Vertex 3 Ycoordinate
    0,                        !- Vertex 3 Zcoordinate
    21.232053027837537,       !- Vertex 4 Xcoordinate
    58.672175428364426,       !- Vertex 4 Ycoordinate
    3;                        !- Vertex 4 Zcoordinate

BUILDINGSURFACE:DETAILED,
    Block Poly_9_Transport Storey 0 Wall 0024,    !- Name
    Wall,                     !- Surface Type
    HSCWZ_Public&Industrial_2015_ExtWall,    !- Construction Name
    Block Poly_9_Transport Storey 0,    !- Zone Name
    ,                         !- Space Name
    Outdoors,                 !- Outside Boundary Condition
    ,                         !- Outside Boundary Condition Object
    SunExposed,               !- Sun Exposure
    WindExposed,              !- Wind Exposure
    autocalculate,            !- View Factor to Ground
    autocalculate,            !- Number of Vertices
    21.232053027837537,       !- Vertex 1 Xcoordinate
    58.672175428364426,       !- Vertex 1 Ycoordinate
    3,                        !- Vertex 1 Zcoordinate
    21.232053027837537,       !- Vertex 2 Xcoordinate
    58.672175428364426,       !- Vertex 2 Ycoordinate
    0,                        !- Vertex 2 Zcoordinate
    26.66063211672008,        !- Vertex 3 Xcoordinate
    65.02482781652361,        !- Vertex 3 Ycoordinate
    0,                        !- Vertex 3 Zcoordinate
    26.66063211672008,        !- Vertex 4 Xcoordinate
    65.02482781652361,        !- Vertex 4 Ycoordinate
    3;                        !- Vertex 4 Zcoordinate

BUILDINGSURFACE:DETAILED,
    Block Poly_9_Transport Storey 0 Wall 0025,    !- Name
    Wall,                     !- Surface Type
    HSCWZ_Public&Industrial_2015_ExtWall,    !- Construction Name
    Block Poly_9_Transport Storey 0,    !- Zone Name
    ,                         !- Space Name
    Outdoors,                 !- Outside Boundary Condition
    ,                         !- Outside Boundary Condition Object
    SunExposed,               !- Sun Exposure
    WindExposed,              !- Wind Exposure
    autocalculate,            !- View Factor to Ground
    autocalculate,            !- Number of Vertices
    26.66063211672008,        !- Vertex 1 Xcoordinate
    65.02482781652361,        !- Vertex 1 Ycoordinate
    3,                        !- Vertex 1 Zcoordinate
    26.66063211672008,        !- Vertex 2 Xcoordinate
    65.02482781652361,        !- Vertex 2 Ycoordinate
    0,                        !- Vertex 2 Zcoordinate
    25.62365947704529,        !- Vertex 3 Xcoordinate
    72.46806353610009,        !- Vertex 3 Ycoordinate
    0,                        !- Vertex 3 Zcoordinate
    25.62365947704529,        !- Vertex 4 Xcoordinate
    72.46806353610009,        !- Vertex 4 Ycoordinate
    3;                        !- Vertex 4 Zcoordinate

BUILDINGSURFACE:DETAILED,
    Block Poly_9_Transport Storey 0 Floor 0001,    !- Name
    Floor,                    !- Surface Type
    HSCWZ_Public&Industrial_2015_FloorGround,    !- Construction Name
    Block Poly_9_Transport Storey 0,    !- Zone Name
    ,                         !- Space Name
    Ground,                   !- Outside Boundary Condition
    ,                         !- Outside Boundary Condition Object
    NoSun,                    !- Sun Exposure
    NoWind,                   !- Wind Exposure
    autocalculate,            !- View Factor to Ground
    autocalculate,            !- Number of Vertices
    53.55683606606908,        !- Vertex 1 Xcoordinate
    66.30212658410892,        !- Vertex 1 Ycoordinate
    0,                        !- Vertex 1 Zcoordinate
    55.98355824605096,        !- Vertex 2 Xcoordinate
    62.71945048309863,        !- Vertex 2 Ycoordinate
    0,                        !- Vertex 2 Zcoordinate
    58.108509029319976,       !- Vertex 3 Xcoordinate
    58.03239233093336,        !- Vertex 3 Ycoordinate
    0,                        !- Vertex 3 Zcoordinate
    60.17305490840226,        !- Vertex 4 Xcoordinate
    49.13310143304989,        !- Vertex 4 Ycoordinate
    0,                        !- Vertex 4 Zcoordinate
    65.69205357984174,        !- Vertex 5 Xcoordinate
    48.4996007271111,         !- Vertex 5 Ycoordinate
    0,                        !- Vertex 5 Zcoordinate
    61.37469498935389,        !- Vertex 6 Xcoordinate
    0,                        !- Vertex 6 Ycoordinate
    0,                        !- Vertex 6 Zcoordinate
    0,                        !- Vertex 7 Xcoordinate
    7.089099625125527,        !- Vertex 7 Ycoordinate
    0,                        !- Vertex 7 Zcoordinate
    4.317641494097188,        !- Vertex 8 Xcoordinate
    55.58868662174791,        !- Vertex 8 Ycoordinate
    0,                        !- Vertex 8 Zcoordinate
    10.787966293166392,       !- Vertex 9 Xcoordinate
    54.83063793834299,        !- Vertex 9 Ycoordinate
    0,                        !- Vertex 9 Zcoordinate
    13.548375225393102,       !- Vertex 10 Xcoordinate
    61.22156073339284,        !- Vertex 10 Ycoordinate
    0,                        !- Vertex 10 Zcoordinate
    16.856681434088387,       !- Vertex 11 Xcoordinate
    65.94155849935487,        !- Vertex 11 Ycoordinate
    0,                        !- Vertex 11 Zcoordinate
    20.91619024181273,        !- Vertex 12 Xcoordinate
    69.87468394590542,        !- Vertex 12 Ycoordinate
    0,                        !- Vertex 12 Zcoordinate
    25.62365947704529,        !- Vertex 13 Xcoordinate
    72.46806353610009,        !- Vertex 13 Ycoordinate
    0,                        !- Vertex 13 Zcoordinate
    26.66063211672008,        !- Vertex 14 Xcoordinate
    65.02482781652361,        !- Vertex 14 Ycoordinate
    0,                        !- Vertex 14 Zcoordinate
    21.232053027837537,       !- Vertex 15 Xcoordinate
    58.672175428364426,       !- Vertex 15 Ycoordinate
    0,                        !- Vertex 15 Zcoordinate
    18.971960503724404,       !- Vertex 16 Xcoordinate
    53.93713990552351,        !- Vertex 16 Ycoordinate
    0,                        !- Vertex 16 Zcoordinate
    53.32155594439246,        !- Vertex 17 Xcoordinate
    49.89658603863791,        !- Vertex 17 Ycoordinate
    0,                        !- Vertex 17 Zcoordinate
    51.68101477972232,        !- Vertex 18 Xcoordinate
    55.13105311105028,        !- Vertex 18 Ycoordinate
    0,                        !- Vertex 18 Zcoordinate
    48.97795445122756,        !- Vertex 19 Xcoordinate
    59.382919657509774,       !- Vertex 19 Ycoordinate
    0,                        !- Vertex 19 Zcoordinate
    45.225093919900246,       !- Vertex 20 Xcoordinate
    63.53897249838337,        !- Vertex 20 Ycoordinate
    0,                        !- Vertex 20 Zcoordinate
    41.25462466047611,        !- Vertex 21 Xcoordinate
    65.8133400301449,         !- Vertex 21 Ycoordinate
    0,                        !- Vertex 21 Zcoordinate
    29.822759653558023,       !- Vertex 22 Xcoordinate
    66.19905215222389,        !- Vertex 22 Ycoordinate
    0,                        !- Vertex 22 Zcoordinate
    30.888568294467404,       !- Vertex 23 Xcoordinate
    74.05560978408903,        !- Vertex 23 Ycoordinate
    0,                        !- Vertex 23 Zcoordinate
    41.465976755542215,       !- Vertex 24 Xcoordinate
    73.90389566635713,        !- Vertex 24 Ycoordinate
    0,                        !- Vertex 24 Zcoordinate
    50.08031381655019,        !- Vertex 25 Xcoordinate
    69.78898835740983,        !- Vertex 25 Ycoordinate
    0;                        !- Vertex 25 Zcoordinate

BUILDINGSURFACE:DETAILED,
    Block Poly_9_Transport Storey 1 Wall 0001,    !- Name
    Wall,                     !- Surface Type
    HSCWZ_Public&Industrial_2015_ExtWall,    !- Construction Name
    Block Poly_9_Transport Storey 1,    !- Zone Name
    ,                         !- Space Name
    Outdoors,                 !- Outside Boundary Condition
    ,                         !- Outside Boundary Condition Object
    SunExposed,               !- Sun Exposure
    WindExposed,              !- Wind Exposure
    autocalculate,            !- View Factor to Ground
    autocalculate,            !- Number of Vertices
    25.62365947704529,        !- Vertex 1 Xcoordinate
    72.46806353610009,        !- Vertex 1 Ycoordinate
    6,                        !- Vertex 1 Zcoordinate
    25.62365947704529,        !- Vertex 2 Xcoordinate
    72.46806353610009,        !- Vertex 2 Ycoordinate
    3,                        !- Vertex 2 Zcoordinate
    20.91619024181273,        !- Vertex 3 Xcoordinate
    69.87468394590542,        !- Vertex 3 Ycoordinate
    3,                        !- Vertex 3 Zcoordinate
    20.91619024181273,        !- Vertex 4 Xcoordinate
    69.87468394590542,        !- Vertex 4 Ycoordinate
    6;                        !- Vertex 4 Zcoordinate

BUILDINGSURFACE:DETAILED,
    Block Poly_9_Transport Storey 1 Wall 0002,    !- Name
    Wall,                     !- Surface Type
    HSCWZ_Public&Industrial_2015_ExtWall,    !- Construction Name
    Block Poly_9_Transport Storey 1,    !- Zone Name
    ,                         !- Space Name
    Outdoors,                 !- Outside Boundary Condition
    ,                         !- Outside Boundary Condition Object
    SunExposed,               !- Sun Exposure
    WindExposed,              !- Wind Exposure
    autocalculate,            !- View Factor to Ground
    autocalculate,            !- Number of Vertices
    20.91619024181273,        !- Vertex 1 Xcoordinate
    69.87468394590542,        !- Vertex 1 Ycoordinate
    6,                        !- Vertex 1 Zcoordinate
    20.91619024181273,        !- Vertex 2 Xcoordinate
    69.87468394590542,        !- Vertex 2 Ycoordinate
    3,                        !- Vertex 2 Zcoordinate
    16.856681434088387,       !- Vertex 3 Xcoordinate
    65.94155849935487,        !- Vertex 3 Ycoordinate
    3,                        !- Vertex 3 Zcoordinate
    16.856681434088387,       !- Vertex 4 Xcoordinate
    65.94155849935487,        !- Vertex 4 Ycoordinate
    6;                        !- Vertex 4 Zcoordinate

BUILDINGSURFACE:DETAILED,
    Block Poly_9_Transport Storey 1 Wall 0003,    !- Name
    Wall,                     !- Surface Type
    HSCWZ_Public&Industrial_2015_ExtWall,    !- Construction Name
    Block Poly_9_Transport Storey 1,    !- Zone Name
    ,                         !- Space Name
    Outdoors,                 !- Outside Boundary Condition
    ,                         !- Outside Boundary Condition Object
    SunExposed,               !- Sun Exposure
    WindExposed,              !- Wind Exposure
    autocalculate,            !- View Factor to Ground
    autocalculate,            !- Number of Vertices
    16.856681434088387,       !- Vertex 1 Xcoordinate
    65.94155849935487,        !- Vertex 1 Ycoordinate
    6,                        !- Vertex 1 Zcoordinate
    16.856681434088387,       !- Vertex 2 Xcoordinate
    65.94155849935487,        !- Vertex 2 Ycoordinate
    3,                        !- Vertex 2 Zcoordinate
    13.548375225393102,       !- Vertex 3 Xcoordinate
    61.22156073339284,        !- Vertex 3 Ycoordinate
    3,                        !- Vertex 3 Zcoordinate
    13.548375225393102,       !- Vertex 4 Xcoordinate
    61.22156073339284,        !- Vertex 4 Ycoordinate
    6;                        !- Vertex 4 Zcoordinate

BUILDINGSURFACE:DETAILED,
    Block Poly_9_Transport Storey 1 Wall 0004,    !- Name
    Wall,                     !- Surface Type
    HSCWZ_Public&Industrial_2015_ExtWall,    !- Construction Name
    Block Poly_9_Transport Storey 1,    !- Zone Name
    ,                         !- Space Name
    Outdoors,                 !- Outside Boundary Condition
    ,                         !- Outside Boundary Condition Object
    SunExposed,               !- Sun Exposure
    WindExposed,              !- Wind Exposure
    autocalculate,            !- View Factor to Ground
    autocalculate,            !- Number of Vertices
    13.548375225393102,       !- Vertex 1 Xcoordinate
    61.22156073339284,        !- Vertex 1 Ycoordinate
    6,                        !- Vertex 1 Zcoordinate
    13.548375225393102,       !- Vertex 2 Xcoordinate
    61.22156073339284,        !- Vertex 2 Ycoordinate
    3,                        !- Vertex 2 Zcoordinate
    10.787966293166392,       !- Vertex 3 Xcoordinate
    54.83063793834299,        !- Vertex 3 Ycoordinate
    3,                        !- Vertex 3 Zcoordinate
    10.787966293166392,       !- Vertex 4 Xcoordinate
    54.83063793834299,        !- Vertex 4 Ycoordinate
    6;                        !- Vertex 4 Zcoordinate

BUILDINGSURFACE:DETAILED,
    Block Poly_9_Transport Storey 1 Wall 0005,    !- Name
    Wall,                     !- Surface Type
    HSCWZ_Public&Industrial_2015_ExtWall,    !- Construction Name
    Block Poly_9_Transport Storey 1,    !- Zone Name
    ,                         !- Space Name
    Outdoors,                 !- Outside Boundary Condition
    ,                         !- Outside Boundary Condition Object
    SunExposed,               !- Sun Exposure
    WindExposed,              !- Wind Exposure
    autocalculate,            !- View Factor to Ground
    autocalculate,            !- Number of Vertices
    10.787966293166392,       !- Vertex 1 Xcoordinate
    54.83063793834299,        !- Vertex 1 Ycoordinate
    6,                        !- Vertex 1 Zcoordinate
    10.787966293166392,       !- Vertex 2 Xcoordinate
    54.83063793834299,        !- Vertex 2 Ycoordinate
    3,                        !- Vertex 2 Zcoordinate
    4.317641494097188,        !- Vertex 3 Xcoordinate
    55.58868662174791,        !- Vertex 3 Ycoordinate
    3,                        !- Vertex 3 Zcoordinate
    4.317641494097188,        !- Vertex 4 Xcoordinate
    55.58868662174791,        !- Vertex 4 Ycoordinate
    6;                        !- Vertex 4 Zcoordinate

BUILDINGSURFACE:DETAILED,
    Block Poly_9_Transport Storey 1 Wall 0006,    !- Name
    Wall,                     !- Surface Type
    HSCWZ_Public&Industrial_2015_ExtWall,    !- Construction Name
    Block Poly_9_Transport Storey 1,    !- Zone Name
    ,                         !- Space Name
    Outdoors,                 !- Outside Boundary Condition
    ,                         !- Outside Boundary Condition Object
    SunExposed,               !- Sun Exposure
    WindExposed,              !- Wind Exposure
    autocalculate,            !- View Factor to Ground
    autocalculate,            !- Number of Vertices
    4.317641494097188,        !- Vertex 1 Xcoordinate
    55.58868662174791,        !- Vertex 1 Ycoordinate
    6,                        !- Vertex 1 Zcoordinate
    4.317641494097188,        !- Vertex 2 Xcoordinate
    55.58868662174791,        !- Vertex 2 Ycoordinate
    3,                        !- Vertex 2 Zcoordinate
    0,                        !- Vertex 3 Xcoordinate
    7.089099625125527,        !- Vertex 3 Ycoordinate
    3,                        !- Vertex 3 Zcoordinate
    0,                        !- Vertex 4 Xcoordinate
    7.089099625125527,        !- Vertex 4 Ycoordinate
    6;                        !- Vertex 4 Zcoordinate

BUILDINGSURFACE:DETAILED,
    Block Poly_9_Transport Storey 1 Wall 0007,    !- Name
    Wall,                     !- Surface Type
    HSCWZ_Public&Industrial_2015_ExtWall,    !- Construction Name
    Block Poly_9_Transport Storey 1,    !- Zone Name
    ,                         !- Space Name
    Outdoors,                 !- Outside Boundary Condition
    ,                         !- Outside Boundary Condition Object
    SunExposed,               !- Sun Exposure
    WindExposed,              !- Wind Exposure
    autocalculate,            !- View Factor to Ground
    autocalculate,            !- Number of Vertices
    0,                        !- Vertex 1 Xcoordinate
    7.089099625125527,        !- Vertex 1 Ycoordinate
    6,                        !- Vertex 1 Zcoordinate
    0,                        !- Vertex 2 Xcoordinate
    7.089099625125527,        !- Vertex 2 Ycoordinate
    3,                        !- Vertex 2 Zcoordinate
    61.37469498935389,        !- Vertex 3 Xcoordinate
    0,                        !- Vertex 3 Ycoordinate
    3,                        !- Vertex 3 Zcoordinate
    61.37469498935389,        !- Vertex 4 Xcoordinate
    0,                        !- Vertex 4 Ycoordinate
    6;                        !- Vertex 4 Zcoordinate

BUILDINGSURFACE:DETAILED,
    Block Poly_9_Transport Storey 1 Wall 0008,    !- Name
    Wall,                     !- Surface Type
    HSCWZ_Public&Industrial_2015_ExtWall,    !- Construction Name
    Block Poly_9_Transport Storey 1,    !- Zone Name
    ,                         !- Space Name
    Outdoors,                 !- Outside Boundary Condition
    ,                         !- Outside Boundary Condition Object
    SunExposed,               !- Sun Exposure
    WindExposed,              !- Wind Exposure
    autocalculate,            !- View Factor to Ground
    autocalculate,            !- Number of Vertices
    61.37469498935389,        !- Vertex 1 Xcoordinate
    0,                        !- Vertex 1 Ycoordinate
    6,                        !- Vertex 1 Zcoordinate
    61.37469498935389,        !- Vertex 2 Xcoordinate
    0,                        !- Vertex 2 Ycoordinate
    3,                        !- Vertex 2 Zcoordinate
    65.69205357984174,        !- Vertex 3 Xcoordinate
    48.4996007271111,         !- Vertex 3 Ycoordinate
    3,                        !- Vertex 3 Zcoordinate
    65.69205357984174,        !- Vertex 4 Xcoordinate
    48.4996007271111,         !- Vertex 4 Ycoordinate
    6;                        !- Vertex 4 Zcoordinate

BUILDINGSURFACE:DETAILED,
    Block Poly_9_Transport Storey 1 Wall 0009,    !- Name
    Wall,                     !- Surface Type
    HSCWZ_Public&Industrial_2015_ExtWall,    !- Construction Name
    Block Poly_9_Transport Storey 1,    !- Zone Name
    ,                         !- Space Name
    Outdoors,                 !- Outside Boundary Condition
    ,                         !- Outside Boundary Condition Object
    SunExposed,               !- Sun Exposure
    WindExposed,              !- Wind Exposure
    autocalculate,            !- View Factor to Ground
    autocalculate,            !- Number of Vertices
    65.69205357984174,        !- Vertex 1 Xcoordinate
    48.4996007271111,         !- Vertex 1 Ycoordinate
    6,                        !- Vertex 1 Zcoordinate
    65.69205357984174,        !- Vertex 2 Xcoordinate
    48.4996007271111,         !- Vertex 2 Ycoordinate
    3,                        !- Vertex 2 Zcoordinate
    60.17305490840226,        !- Vertex 3 Xcoordinate
    49.13310143304989,        !- Vertex 3 Ycoordinate
    3,                        !- Vertex 3 Zcoordinate
    60.17305490840226,        !- Vertex 4 Xcoordinate
    49.13310143304989,        !- Vertex 4 Ycoordinate
    6;                        !- Vertex 4 Zcoordinate

BUILDINGSURFACE:DETAILED,
    Block Poly_9_Transport Storey 1 Wall 0010,    !- Name
    Wall,                     !- Surface Type
    HSCWZ_Public&Industrial_2015_ExtWall,    !- Construction Name
    Block Poly_9_Transport Storey 1,    !- Zone Name
    ,                         !- Space Name
    Outdoors,                 !- Outside Boundary Condition
    ,                         !- Outside Boundary Condition Object
    SunExposed,               !- Sun Exposure
    WindExposed,              !- Wind Exposure
    autocalculate,            !- View Factor to Ground
    autocalculate,            !- Number of Vertices
    60.17305490840226,        !- Vertex 1 Xcoordinate
    49.13310143304989,        !- Vertex 1 Ycoordinate
    6,                        !- Vertex 1 Zcoordinate
    60.17305490840226,        !- Vertex 2 Xcoordinate
    49.13310143304989,        !- Vertex 2 Ycoordinate
    3,                        !- Vertex 2 Zcoordinate
    58.108509029319976,       !- Vertex 3 Xcoordinate
    58.03239233093336,        !- Vertex 3 Ycoordinate
    3,                        !- Vertex 3 Zcoordinate
    58.108509029319976,       !- Vertex 4 Xcoordinate
    58.03239233093336,        !- Vertex 4 Ycoordinate
    6;                        !- Vertex 4 Zcoordinate

BUILDINGSURFACE:DETAILED,
    Block Poly_9_Transport Storey 1 Wall 0011,    !- Name
    Wall,                     !- Surface Type
    HSCWZ_Public&Industrial_2015_ExtWall,    !- Construction Name
    Block Poly_9_Transport Storey 1,    !- Zone Name
    ,                         !- Space Name
    Outdoors,                 !- Outside Boundary Condition
    ,                         !- Outside Boundary Condition Object
    SunExposed,               !- Sun Exposure
    WindExposed,              !- Wind Exposure
    autocalculate,            !- View Factor to Ground
    autocalculate,            !- Number of Vertices
    58.108509029319976,       !- Vertex 1 Xcoordinate
    58.03239233093336,        !- Vertex 1 Ycoordinate
    6,                        !- Vertex 1 Zcoordinate
    58.108509029319976,       !- Vertex 2 Xcoordinate
    58.03239233093336,        !- Vertex 2 Ycoordinate
    3,                        !- Vertex 2 Zcoordinate
    55.98355824605096,        !- Vertex 3 Xcoordinate
    62.71945048309863,        !- Vertex 3 Ycoordinate
    3,                        !- Vertex 3 Zcoordinate
    55.98355824605096,        !- Vertex 4 Xcoordinate
    62.71945048309863,        !- Vertex 4 Ycoordinate
    6;                        !- Vertex 4 Zcoordinate

BUILDINGSURFACE:DETAILED,
    Block Poly_9_Transport Storey 1 Wall 0012,    !- Name
    Wall,                     !- Surface Type
    HSCWZ_Public&Industrial_2015_ExtWall,    !- Construction Name
    Block Poly_9_Transport Storey 1,    !- Zone Name
    ,                         !- Space Name
    Outdoors,                 !- Outside Boundary Condition
    ,                         !- Outside Boundary Condition Object
    SunExposed,               !- Sun Exposure
    WindExposed,              !- Wind Exposure
    autocalculate,            !- View Factor to Ground
    autocalculate,            !- Number of Vertices
    55.98355824605096,        !- Vertex 1 Xcoordinate
    62.71945048309863,        !- Vertex 1 Ycoordinate
    6,                        !- Vertex 1 Zcoordinate
    55.98355824605096,        !- Vertex 2 Xcoordinate
    62.71945048309863,        !- Vertex 2 Ycoordinate
    3,                        !- Vertex 2 Zcoordinate
    53.55683606606908,        !- Vertex 3 Xcoordinate
    66.30212658410892,        !- Vertex 3 Ycoordinate
    3,                        !- Vertex 3 Zcoordinate
    53.55683606606908,        !- Vertex 4 Xcoordinate
    66.30212658410892,        !- Vertex 4 Ycoordinate
    6;                        !- Vertex 4 Zcoordinate

BUILDINGSURFACE:DETAILED,
    Block Poly_9_Transport Storey 1 Wall 0013,    !- Name
    Wall,                     !- Surface Type
    HSCWZ_Public&Industrial_2015_ExtWall,    !- Construction Name
    Block Poly_9_Transport Storey 1,    !- Zone Name
    ,                         !- Space Name
    Outdoors,                 !- Outside Boundary Condition
    ,                         !- Outside Boundary Condition Object
    SunExposed,               !- Sun Exposure
    WindExposed,              !- Wind Exposure
    autocalculate,            !- View Factor to Ground
    autocalculate,            !- Number of Vertices
    53.55683606606908,        !- Vertex 1 Xcoordinate
    66.30212658410892,        !- Vertex 1 Ycoordinate
    6,                        !- Vertex 1 Zcoordinate
    53.55683606606908,        !- Vertex 2 Xcoordinate
    66.30212658410892,        !- Vertex 2 Ycoordinate
    3,                        !- Vertex 2 Zcoordinate
    50.08031381655019,        !- Vertex 3 Xcoordinate
    69.78898835740983,        !- Vertex 3 Ycoordinate
    3,                        !- Vertex 3 Zcoordinate
    50.08031381655019,        !- Vertex 4 Xcoordinate
    69.78898835740983,        !- Vertex 4 Ycoordinate
    6;                        !- Vertex 4 Zcoordinate

BUILDINGSURFACE:DETAILED,
    Block Poly_9_Transport Storey 1 Wall 0014,    !- Name
    Wall,                     !- Surface Type
    HSCWZ_Public&Industrial_2015_ExtWall,    !- Construction Name
    Block Poly_9_Transport Storey 1,    !- Zone Name
    ,                         !- Space Name
    Outdoors,                 !- Outside Boundary Condition
    ,                         !- Outside Boundary Condition Object
    SunExposed,               !- Sun Exposure
    WindExposed,              !- Wind Exposure
    autocalculate,            !- View Factor to Ground
    autocalculate,            !- Number of Vertices
    50.08031381655019,        !- Vertex 1 Xcoordinate
    69.78898835740983,        !- Vertex 1 Ycoordinate
    6,                        !- Vertex 1 Zcoordinate
    50.08031381655019,        !- Vertex 2 Xcoordinate
    69.78898835740983,        !- Vertex 2 Ycoordinate
    3,                        !- Vertex 2 Zcoordinate
    41.465976755542215,       !- Vertex 3 Xcoordinate
    73.90389566635713,        !- Vertex 3 Ycoordinate
    3,                        !- Vertex 3 Zcoordinate
    41.465976755542215,       !- Vertex 4 Xcoordinate
    73.90389566635713,        !- Vertex 4 Ycoordinate
    6;                        !- Vertex 4 Zcoordinate

BUILDINGSURFACE:DETAILED,
    Block Poly_9_Transport Storey 1 Wall 0015,    !- Name
    Wall,                     !- Surface Type
    HSCWZ_Public&Industrial_2015_ExtWall,    !- Construction Name
    Block Poly_9_Transport Storey 1,    !- Zone Name
    ,                         !- Space Name
    Outdoors,                 !- Outside Boundary Condition
    ,                         !- Outside Boundary Condition Object
    SunExposed,               !- Sun Exposure
    WindExposed,              !- Wind Exposure
    autocalculate,            !- View Factor to Ground
    autocalculate,            !- Number of Vertices
    41.465976755542215,       !- Vertex 1 Xcoordinate
    73.90389566635713,        !- Vertex 1 Ycoordinate
    6,                        !- Vertex 1 Zcoordinate
    41.465976755542215,       !- Vertex 2 Xcoordinate
    73.90389566635713,        !- Vertex 2 Ycoordinate
    3,                        !- Vertex 2 Zcoordinate
    30.888568294467404,       !- Vertex 3 Xcoordinate
    74.05560978408903,        !- Vertex 3 Ycoordinate
    3,                        !- Vertex 3 Zcoordinate
    30.888568294467404,       !- Vertex 4 Xcoordinate
    74.05560978408903,        !- Vertex 4 Ycoordinate
    6;                        !- Vertex 4 Zcoordinate

BUILDINGSURFACE:DETAILED,
    Block Poly_9_Transport Storey 1 Wall 0016,    !- Name
    Wall,                     !- Surface Type
    HSCWZ_Public&Industrial_2015_ExtWall,    !- Construction Name
    Block Poly_9_Transport Storey 1,    !- Zone Name
    ,                         !- Space Name
    Outdoors,                 !- Outside Boundary Condition
    ,                         !- Outside Boundary Condition Object
    SunExposed,               !- Sun Exposure
    WindExposed,              !- Wind Exposure
    autocalculate,            !- View Factor to Ground
    autocalculate,            !- Number of Vertices
    30.888568294467404,       !- Vertex 1 Xcoordinate
    74.05560978408903,        !- Vertex 1 Ycoordinate
    6,                        !- Vertex 1 Zcoordinate
    30.888568294467404,       !- Vertex 2 Xcoordinate
    74.05560978408903,        !- Vertex 2 Ycoordinate
    3,                        !- Vertex 2 Zcoordinate
    29.822759653558023,       !- Vertex 3 Xcoordinate
    66.19905215222389,        !- Vertex 3 Ycoordinate
    3,                        !- Vertex 3 Zcoordinate
    29.822759653558023,       !- Vertex 4 Xcoordinate
    66.19905215222389,        !- Vertex 4 Ycoordinate
    6;                        !- Vertex 4 Zcoordinate

BUILDINGSURFACE:DETAILED,
    Block Poly_9_Transport Storey 1 Wall 0017,    !- Name
    Wall,                     !- Surface Type
    HSCWZ_Public&Industrial_2015_ExtWall,    !- Construction Name
    Block Poly_9_Transport Storey 1,    !- Zone Name
    ,                         !- Space Name
    Outdoors,                 !- Outside Boundary Condition
    ,                         !- Outside Boundary Condition Object
    SunExposed,               !- Sun Exposure
    WindExposed,              !- Wind Exposure
    autocalculate,            !- View Factor to Ground
    autocalculate,            !- Number of Vertices
    29.822759653558023,       !- Vertex 1 Xcoordinate
    66.19905215222389,        !- Vertex 1 Ycoordinate
    6,                        !- Vertex 1 Zcoordinate
    29.822759653558023,       !- Vertex 2 Xcoordinate
    66.19905215222389,        !- Vertex 2 Ycoordinate
    3,                        !- Vertex 2 Zcoordinate
    41.25462466047611,        !- Vertex 3 Xcoordinate
    65.8133400301449,         !- Vertex 3 Ycoordinate
    3,                        !- Vertex 3 Zcoordinate
    41.25462466047611,        !- Vertex 4 Xcoordinate
    65.8133400301449,         !- Vertex 4 Ycoordinate
    6;                        !- Vertex 4 Zcoordinate

BUILDINGSURFACE:DETAILED,
    Block Poly_9_Transport Storey 1 Wall 0018,    !- Name
    Wall,                     !- Surface Type
    HSCWZ_Public&Industrial_2015_ExtWall,    !- Construction Name
    Block Poly_9_Transport Storey 1,    !- Zone Name
    ,                         !- Space Name
    Outdoors,                 !- Outside Boundary Condition
    ,                         !- Outside Boundary Condition Object
    SunExposed,               !- Sun Exposure
    WindExposed,              !- Wind Exposure
    autocalculate,            !- View Factor to Ground
    autocalculate,            !- Number of Vertices
    41.25462466047611,        !- Vertex 1 Xcoordinate
    65.8133400301449,         !- Vertex 1 Ycoordinate
    6,                        !- Vertex 1 Zcoordinate
    41.25462466047611,        !- Vertex 2 Xcoordinate
    65.8133400301449,         !- Vertex 2 Ycoordinate
    3,                        !- Vertex 2 Zcoordinate
    45.225093919900246,       !- Vertex 3 Xcoordinate
    63.53897249838337,        !- Vertex 3 Ycoordinate
    3,                        !- Vertex 3 Zcoordinate
    45.225093919900246,       !- Vertex 4 Xcoordinate
    63.53897249838337,        !- Vertex 4 Ycoordinate
    6;                        !- Vertex 4 Zcoordinate

BUILDINGSURFACE:DETAILED,
    Block Poly_9_Transport Storey 1 Wall 0019,    !- Name
    Wall,                     !- Surface Type
    HSCWZ_Public&Industrial_2015_ExtWall,    !- Construction Name
    Block Poly_9_Transport Storey 1,    !- Zone Name
    ,                         !- Space Name
    Outdoors,                 !- Outside Boundary Condition
    ,                         !- Outside Boundary Condition Object
    SunExposed,               !- Sun Exposure
    WindExposed,              !- Wind Exposure
    autocalculate,            !- View Factor to Ground
    autocalculate,            !- Number of Vertices
    45.225093919900246,       !- Vertex 1 Xcoordinate
    63.53897249838337,        !- Vertex 1 Ycoordinate
    6,                        !- Vertex 1 Zcoordinate
    45.225093919900246,       !- Vertex 2 Xcoordinate
    63.53897249838337,        !- Vertex 2 Ycoordinate
    3,                        !- Vertex 2 Zcoordinate
    48.97795445122756,        !- Vertex 3 Xcoordinate
    59.382919657509774,       !- Vertex 3 Ycoordinate
    3,                        !- Vertex 3 Zcoordinate
    48.97795445122756,        !- Vertex 4 Xcoordinate
    59.382919657509774,       !- Vertex 4 Ycoordinate
    6;                        !- Vertex 4 Zcoordinate

BUILDINGSURFACE:DETAILED,
    Block Poly_9_Transport Storey 1 Wall 0020,    !- Name
    Wall,                     !- Surface Type
    HSCWZ_Public&Industrial_2015_ExtWall,    !- Construction Name
    Block Poly_9_Transport Storey 1,    !- Zone Name
    ,                         !- Space Name
    Outdoors,                 !- Outside Boundary Condition
    ,                         !- Outside Boundary Condition Object
    SunExposed,               !- Sun Exposure
    WindExposed,              !- Wind Exposure
    autocalculate,            !- View Factor to Ground
    autocalculate,            !- Number of Vertices
    48.97795445122756,        !- Vertex 1 Xcoordinate
    59.382919657509774,       !- Vertex 1 Ycoordinate
    6,                        !- Vertex 1 Zcoordinate
    48.97795445122756,        !- Vertex 2 Xcoordinate
    59.382919657509774,       !- Vertex 2 Ycoordinate
    3,                        !- Vertex 2 Zcoordinate
    51.68101477972232,        !- Vertex 3 Xcoordinate
    55.13105311105028,        !- Vertex 3 Ycoordinate
    3,                        !- Vertex 3 Zcoordinate
    51.68101477972232,        !- Vertex 4 Xcoordinate
    55.13105311105028,        !- Vertex 4 Ycoordinate
    6;                        !- Vertex 4 Zcoordinate

BUILDINGSURFACE:DETAILED,
    Block Poly_9_Transport Storey 1 Wall 0021,    !- Name
    Wall,                     !- Surface Type
    HSCWZ_Public&Industrial_2015_ExtWall,    !- Construction Name
    Block Poly_9_Transport Storey 1,    !- Zone Name
    ,                         !- Space Name
    Outdoors,                 !- Outside Boundary Condition
    ,                         !- Outside Boundary Condition Object
    SunExposed,               !- Sun Exposure
    WindExposed,              !- Wind Exposure
    autocalculate,            !- View Factor to Ground
    autocalculate,            !- Number of Vertices
    51.68101477972232,        !- Vertex 1 Xcoordinate
    55.13105311105028,        !- Vertex 1 Ycoordinate
    6,                        !- Vertex 1 Zcoordinate
    51.68101477972232,        !- Vertex 2 Xcoordinate
    55.13105311105028,        !- Vertex 2 Ycoordinate
    3,                        !- Vertex 2 Zcoordinate
    53.32155594439246,        !- Vertex 3 Xcoordinate
    49.89658603863791,        !- Vertex 3 Ycoordinate
    3,                        !- Vertex 3 Zcoordinate
    53.32155594439246,        !- Vertex 4 Xcoordinate
    49.89658603863791,        !- Vertex 4 Ycoordinate
    6;                        !- Vertex 4 Zcoordinate

BUILDINGSURFACE:DETAILED,
    Block Poly_9_Transport Storey 1 Wall 0022,    !- Name
    Wall,                     !- Surface Type
    HSCWZ_Public&Industrial_2015_ExtWall,    !- Construction Name
    Block Poly_9_Transport Storey 1,    !- Zone Name
    ,                         !- Space Name
    Outdoors,                 !- Outside Boundary Condition
    ,                         !- Outside Boundary Condition Object
    SunExposed,               !- Sun Exposure
    WindExposed,              !- Wind Exposure
    autocalculate,            !- View Factor to Ground
    autocalculate,            !- Number of Vertices
    53.32155594439246,        !- Vertex 1 Xcoordinate
    49.89658603863791,        !- Vertex 1 Ycoordinate
    6,                        !- Vertex 1 Zcoordinate
    53.32155594439246,        !- Vertex 2 Xcoordinate
    49.89658603863791,        !- Vertex 2 Ycoordinate
    3,                        !- Vertex 2 Zcoordinate
    18.971960503724404,       !- Vertex 3 Xcoordinate
    53.93713990552351,        !- Vertex 3 Ycoordinate
    3,                        !- Vertex 3 Zcoordinate
    18.971960503724404,       !- Vertex 4 Xcoordinate
    53.93713990552351,        !- Vertex 4 Ycoordinate
    6;                        !- Vertex 4 Zcoordinate

BUILDINGSURFACE:DETAILED,
    Block Poly_9_Transport Storey 1 Wall 0023,    !- Name
    Wall,                     !- Surface Type
    HSCWZ_Public&Industrial_2015_ExtWall,    !- Construction Name
    Block Poly_9_Transport Storey 1,    !- Zone Name
    ,                         !- Space Name
    Outdoors,                 !- Outside Boundary Condition
    ,                         !- Outside Boundary Condition Object
    SunExposed,               !- Sun Exposure
    WindExposed,              !- Wind Exposure
    autocalculate,            !- View Factor to Ground
    autocalculate,            !- Number of Vertices
    18.971960503724404,       !- Vertex 1 Xcoordinate
    53.93713990552351,        !- Vertex 1 Ycoordinate
    6,                        !- Vertex 1 Zcoordinate
    18.971960503724404,       !- Vertex 2 Xcoordinate
    53.93713990552351,        !- Vertex 2 Ycoordinate
    3,                        !- Vertex 2 Zcoordinate
    21.232053027837537,       !- Vertex 3 Xcoordinate
    58.672175428364426,       !- Vertex 3 Ycoordinate
    3,                        !- Vertex 3 Zcoordinate
    21.232053027837537,       !- Vertex 4 Xcoordinate
    58.672175428364426,       !- Vertex 4 Ycoordinate
    6;                        !- Vertex 4 Zcoordinate

BUILDINGSURFACE:DETAILED,
    Block Poly_9_Transport Storey 1 Wall 0024,    !- Name
    Wall,                     !- Surface Type
    HSCWZ_Public&Industrial_2015_ExtWall,    !- Construction Name
    Block Poly_9_Transport Storey 1,    !- Zone Name
    ,                         !- Space Name
    Outdoors,                 !- Outside Boundary Condition
    ,                         !- Outside Boundary Condition Object
    SunExposed,               !- Sun Exposure
    WindExposed,              !- Wind Exposure
    autocalculate,            !- View Factor to Ground
    autocalculate,            !- Number of Vertices
    21.232053027837537,       !- Vertex 1 Xcoordinate
    58.672175428364426,       !- Vertex 1 Ycoordinate
    6,                        !- Vertex 1 Zcoordinate
    21.232053027837537,       !- Vertex 2 Xcoordinate
    58.672175428364426,       !- Vertex 2 Ycoordinate
    3,                        !- Vertex 2 Zcoordinate
    26.66063211672008,        !- Vertex 3 Xcoordinate
    65.02482781652361,        !- Vertex 3 Ycoordinate
    3,                        !- Vertex 3 Zcoordinate
    26.66063211672008,        !- Vertex 4 Xcoordinate
    65.02482781652361,        !- Vertex 4 Ycoordinate
    6;                        !- Vertex 4 Zcoordinate

BUILDINGSURFACE:DETAILED,
    Block Poly_9_Transport Storey 1 Wall 0025,    !- Name
    Wall,                     !- Surface Type
    HSCWZ_Public&Industrial_2015_ExtWall,    !- Construction Name
    Block Poly_9_Transport Storey 1,    !- Zone Name
    ,                         !- Space Name
    Outdoors,                 !- Outside Boundary Condition
    ,                         !- Outside Boundary Condition Object
    SunExposed,               !- Sun Exposure
    WindExposed,              !- Wind Exposure
    autocalculate,            !- View Factor to Ground
    autocalculate,            !- Number of Vertices
    26.66063211672008,        !- Vertex 1 Xcoordinate
    65.02482781652361,        !- Vertex 1 Ycoordinate
    6,                        !- Vertex 1 Zcoordinate
    26.66063211672008,        !- Vertex 2 Xcoordinate
    65.02482781652361,        !- Vertex 2 Ycoordinate
    3,                        !- Vertex 2 Zcoordinate
    25.62365947704529,        !- Vertex 3 Xcoordinate
    72.46806353610009,        !- Vertex 3 Ycoordinate
    3,                        !- Vertex 3 Zcoordinate
    25.62365947704529,        !- Vertex 4 Xcoordinate
    72.46806353610009,        !- Vertex 4 Ycoordinate
    6;                        !- Vertex 4 Zcoordinate

BUILDINGSURFACE:DETAILED,
    Block Poly_9_Transport Storey 1 Roof 0001,    !- Name
    Roof,                     !- Surface Type
    HSCWZ_Public&Industrial_2015_Roof,    !- Construction Name
    Block Poly_9_Transport Storey 1,    !- Zone Name
    ,                         !- Space Name
    Outdoors,                 !- Outside Boundary Condition
    ,                         !- Outside Boundary Condition Object
    SunExposed,               !- Sun Exposure
    WindExposed,              !- Wind Exposure
    autocalculate,            !- View Factor to Ground
    autocalculate,            !- Number of Vertices
    61.37469498935389,        !- Vertex 1 Xcoordinate
    0,                        !- Vertex 1 Ycoordinate
    6,                        !- Vertex 1 Zcoordinate
    65.69205357984174,        !- Vertex 2 Xcoordinate
    48.4996007271111,         !- Vertex 2 Ycoordinate
    6,                        !- Vertex 2 Zcoordinate
    60.17305490840226,        !- Vertex 3 Xcoordinate
    49.13310143304989,        !- Vertex 3 Ycoordinate
    6,                        !- Vertex 3 Zcoordinate
    58.108509029319976,       !- Vertex 4 Xcoordinate
    58.03239233093336,        !- Vertex 4 Ycoordinate
    6,                        !- Vertex 4 Zcoordinate
    55.98355824605096,        !- Vertex 5 Xcoordinate
    62.71945048309863,        !- Vertex 5 Ycoordinate
    6,                        !- Vertex 5 Zcoordinate
    53.55683606606908,        !- Vertex 6 Xcoordinate
    66.30212658410892,        !- Vertex 6 Ycoordinate
    6,                        !- Vertex 6 Zcoordinate
    50.08031381655019,        !- Vertex 7 Xcoordinate
    69.78898835740983,        !- Vertex 7 Ycoordinate
    6,                        !- Vertex 7 Zcoordinate
    41.465976755542215,       !- Vertex 8 Xcoordinate
    73.90389566635713,        !- Vertex 8 Ycoordinate
    6,                        !- Vertex 8 Zcoordinate
    30.888568294467404,       !- Vertex 9 Xcoordinate
    74.05560978408903,        !- Vertex 9 Ycoordinate
    6,                        !- Vertex 9 Zcoordinate
    29.822759653558023,       !- Vertex 10 Xcoordinate
    66.19905215222389,        !- Vertex 10 Ycoordinate
    6,                        !- Vertex 10 Zcoordinate
    41.25462466047611,        !- Vertex 11 Xcoordinate
    65.8133400301449,         !- Vertex 11 Ycoordinate
    6,                        !- Vertex 11 Zcoordinate
    45.225093919900246,       !- Vertex 12 Xcoordinate
    63.53897249838337,        !- Vertex 12 Ycoordinate
    6,                        !- Vertex 12 Zcoordinate
    48.97795445122756,        !- Vertex 13 Xcoordinate
    59.382919657509774,       !- Vertex 13 Ycoordinate
    6,                        !- Vertex 13 Zcoordinate
    51.68101477972232,        !- Vertex 14 Xcoordinate
    55.13105311105028,        !- Vertex 14 Ycoordinate
    6,                        !- Vertex 14 Zcoordinate
    53.32155594439246,        !- Vertex 15 Xcoordinate
    49.89658603863791,        !- Vertex 15 Ycoordinate
    6,                        !- Vertex 15 Zcoordinate
    18.971960503724404,       !- Vertex 16 Xcoordinate
    53.93713990552351,        !- Vertex 16 Ycoordinate
    6,                        !- Vertex 16 Zcoordinate
    21.232053027837537,       !- Vertex 17 Xcoordinate
    58.672175428364426,       !- Vertex 17 Ycoordinate
    6,                        !- Vertex 17 Zcoordinate
    26.66063211672008,        !- Vertex 18 Xcoordinate
    65.02482781652361,        !- Vertex 18 Ycoordinate
    6,                        !- Vertex 18 Zcoordinate
    25.62365947704529,        !- Vertex 19 Xcoordinate
    72.46806353610009,        !- Vertex 19 Ycoordinate
    6,                        !- Vertex 19 Zcoordinate
    20.91619024181273,        !- Vertex 20 Xcoordinate
    69.87468394590542,        !- Vertex 20 Ycoordinate
    6,                        !- Vertex 20 Zcoordinate
    16.856681434088387,       !- Vertex 21 Xcoordinate
    65.94155849935487,        !- Vertex 21 Ycoordinate
    6,                        !- Vertex 21 Zcoordinate
    13.548375225393102,       !- Vertex 22 Xcoordinate
    61.22156073339284,        !- Vertex 22 Ycoordinate
    6,                        !- Vertex 22 Zcoordinate
    10.787966293166392,       !- Vertex 23 Xcoordinate
    54.83063793834299,        !- Vertex 23 Ycoordinate
    6,                        !- Vertex 23 Zcoordinate
    4.317641494097188,        !- Vertex 24 Xcoordinate
    55.58868662174791,        !- Vertex 24 Ycoordinate
    6,                        !- Vertex 24 Zcoordinate
    0,                        !- Vertex 25 Xcoordinate
    7.089099625125527,        !- Vertex 25 Ycoordinate
    6;                        !- Vertex 25 Zcoordinate

BUILDINGSURFACE:DETAILED,
    Block Poly_9_Transport Storey 0 Ceiling 0001_1,    !- Name
    Ceiling,                  !- Surface Type
    HSCWZ_Public&Industrial_2015_FloorSlab,    !- Construction Name
    Block Poly_9_Transport Storey 0,    !- Zone Name
    ,                         !- Space Name
    Surface,                  !- Outside Boundary Condition
    Block Poly_9_Transport Storey 1 Floor 0001_1,    !- Outside Boundary Condition Object
    NoSun,                    !- Sun Exposure
    NoWind,                   !- Wind Exposure
    autocalculate,            !- View Factor to Ground
    autocalculate,            !- Number of Vertices
    61.374694989062846,       !- Vertex 1 Xcoordinate
    0,                        !- Vertex 1 Ycoordinate
    3,                        !- Vertex 1 Zcoordinate
    65.69205357972533,        !- Vertex 2 Xcoordinate
    48.4996007271111,         !- Vertex 2 Ycoordinate
    3,                        !- Vertex 2 Zcoordinate
    60.1730549079366,         !- Vertex 3 Xcoordinate
    49.13310143304989,        !- Vertex 3 Ycoordinate
    3,                        !- Vertex 3 Zcoordinate
    58.10850902926177,        !- Vertex 4 Xcoordinate
    58.03239233093336,        !- Vertex 4 Ycoordinate
    3,                        !- Vertex 4 Zcoordinate
    55.983558245934546,       !- Vertex 5 Xcoordinate
    62.719450483098626,       !- Vertex 5 Ycoordinate
    3,                        !- Vertex 5 Zcoordinate
    53.55683606583625,        !- Vertex 6 Xcoordinate
    66.30212658410892,        !- Vertex 6 Ycoordinate
    3,                        !- Vertex 6 Zcoordinate
    50.08031381620094,        !- Vertex 7 Xcoordinate
    69.78898835740983,        !- Vertex 7 Ycoordinate
    3,                        !- Vertex 7 Zcoordinate
    41.46597675513476,        !- Vertex 8 Xcoordinate
    73.90389566635713,        !- Vertex 8 Ycoordinate
    3,                        !- Vertex 8 Zcoordinate
    30.888568294234574,       !- Vertex 9 Xcoordinate
    74.05560978408903,        !- Vertex 9 Ycoordinate
    3,                        !- Vertex 9 Zcoordinate
    29.822759653441608,       !- Vertex 10 Xcoordinate
    66.19905215222389,        !- Vertex 10 Ycoordinate
    3,                        !- Vertex 10 Zcoordinate
    41.254624660126865,       !- Vertex 11 Xcoordinate
    65.8133400301449,         !- Vertex 11 Ycoordinate
    3,                        !- Vertex 11 Zcoordinate
    45.22509391978383,        !- Vertex 12 Xcoordinate
    63.53897249838337,        !- Vertex 12 Ycoordinate
    3,                        !- Vertex 12 Zcoordinate
    48.97795445099473,        !- Vertex 13 Xcoordinate
    59.382919657509774,       !- Vertex 13 Ycoordinate
    3,                        !- Vertex 13 Zcoordinate
    51.68101477948949,        !- Vertex 14 Xcoordinate
    55.13105311105028,        !- Vertex 14 Ycoordinate
    3,                        !- Vertex 14 Zcoordinate
    53.32155594415963,        !- Vertex 15 Xcoordinate
    49.896586038637906,       !- Vertex 15 Ycoordinate
    3,                        !- Vertex 15 Zcoordinate
    18.97196050360799,        !- Vertex 16 Xcoordinate
    53.93713990552351,        !- Vertex 16 Ycoordinate
    3,                        !- Vertex 16 Zcoordinate
    21.23205302748829,        !- Vertex 17 Xcoordinate
    58.672175428364426,       !- Vertex 17 Ycoordinate
    3,                        !- Vertex 17 Zcoordinate
    26.66063211672008,        !- Vertex 18 Xcoordinate
    65.02482781652361,        !- Vertex 18 Ycoordinate
    3,                        !- Vertex 18 Zcoordinate
    25.62365947663784,        !- Vertex 19 Xcoordinate
    72.46806353610009,        !- Vertex 19 Ycoordinate
    3,                        !- Vertex 19 Zcoordinate
    20.916190241463482,       !- Vertex 20 Xcoordinate
    69.87468394590542,        !- Vertex 20 Ycoordinate
    3,                        !- Vertex 20 Zcoordinate
    16.85668143397197,        !- Vertex 21 Xcoordinate
    65.94155849935487,        !- Vertex 21 Ycoordinate
    3,                        !- Vertex 21 Zcoordinate
    13.548375225160271,       !- Vertex 22 Xcoordinate
    61.221560733392835,       !- Vertex 22 Ycoordinate
    3,                        !- Vertex 22 Zcoordinate
    10.787966292817146,       !- Vertex 23 Xcoordinate
    54.83063793834299,        !- Vertex 23 Ycoordinate
    3,                        !- Vertex 23 Zcoordinate
    4.3176414938643575,       !- Vertex 24 Xcoordinate
    55.58868662174791,        !- Vertex 24 Ycoordinate
    3,                        !- Vertex 24 Zcoordinate
    0,                        !- Vertex 25 Xcoordinate
    7.089099625125527,        !- Vertex 25 Ycoordinate
    3;                        !- Vertex 25 Zcoordinate

BUILDINGSURFACE:DETAILED,
    Block Poly_9_Transport Storey 1 Floor 0001_1,    !- Name
    Floor,                    !- Surface Type
    HSCWZ_Public&Industrial_2015_FloorSlab,    !- Construction Name
    Block Poly_9_Transport Storey 1,    !- Zone Name
    ,                         !- Space Name
    Surface,                  !- Outside Boundary Condition
    Block Poly_9_Transport Storey 0 Ceiling 0001_1,    !- Outside Boundary Condition Object
    NoSun,                    !- Sun Exposure
    NoWind,                   !- Wind Exposure
    autocalculate,            !- View Factor to Ground
    autocalculate,            !- Number of Vertices
    53.55683606583625,        !- Vertex 1 Xcoordinate
    66.30212658410892,        !- Vertex 1 Ycoordinate
    3,                        !- Vertex 1 Zcoordinate
    55.983558245934546,       !- Vertex 2 Xcoordinate
    62.719450483098626,       !- Vertex 2 Ycoordinate
    3,                        !- Vertex 2 Zcoordinate
    58.10850902926177,        !- Vertex 3 Xcoordinate
    58.03239233093336,        !- Vertex 3 Ycoordinate
    3,                        !- Vertex 3 Zcoordinate
    60.1730549079366,         !- Vertex 4 Xcoordinate
    49.13310143304989,        !- Vertex 4 Ycoordinate
    3,                        !- Vertex 4 Zcoordinate
    65.69205357972533,        !- Vertex 5 Xcoordinate
    48.4996007271111,         !- Vertex 5 Ycoordinate
    3,                        !- Vertex 5 Zcoordinate
    61.374694989062846,       !- Vertex 6 Xcoordinate
    0,                        !- Vertex 6 Ycoordinate
    3,                        !- Vertex 6 Zcoordinate
    0,                        !- Vertex 7 Xcoordinate
    7.089099625125527,        !- Vertex 7 Ycoordinate
    3,                        !- Vertex 7 Zcoordinate
    4.3176414938643575,       !- Vertex 8 Xcoordinate
    55.58868662174791,        !- Vertex 8 Ycoordinate
    3,                        !- Vertex 8 Zcoordinate
    10.787966292817146,       !- Vertex 9 Xcoordinate
    54.83063793834299,        !- Vertex 9 Ycoordinate
    3,                        !- Vertex 9 Zcoordinate
    13.548375225160271,       !- Vertex 10 Xcoordinate
    61.221560733392835,       !- Vertex 10 Ycoordinate
    3,                        !- Vertex 10 Zcoordinate
    16.85668143397197,        !- Vertex 11 Xcoordinate
    65.94155849935487,        !- Vertex 11 Ycoordinate
    3,                        !- Vertex 11 Zcoordinate
    20.916190241463482,       !- Vertex 12 Xcoordinate
    69.87468394590542,        !- Vertex 12 Ycoordinate
    3,                        !- Vertex 12 Zcoordinate
    25.62365947663784,        !- Vertex 13 Xcoordinate
    72.46806353610009,        !- Vertex 13 Ycoordinate
    3,                        !- Vertex 13 Zcoordinate
    26.66063211672008,        !- Vertex 14 Xcoordinate
    65.02482781652361,        !- Vertex 14 Ycoordinate
    3,                        !- Vertex 14 Zcoordinate
    21.23205302748829,        !- Vertex 15 Xcoordinate
    58.672175428364426,       !- Vertex 15 Ycoordinate
    3,                        !- Vertex 15 Zcoordinate
    18.97196050360799,        !- Vertex 16 Xcoordinate
    53.93713990552351,        !- Vertex 16 Ycoordinate
    3,                        !- Vertex 16 Zcoordinate
    53.32155594415963,        !- Vertex 17 Xcoordinate
    49.896586038637906,       !- Vertex 17 Ycoordinate
    3,                        !- Vertex 17 Zcoordinate
    51.68101477948949,        !- Vertex 18 Xcoordinate
    55.13105311105028,        !- Vertex 18 Ycoordinate
    3,                        !- Vertex 18 Zcoordinate
    48.97795445099473,        !- Vertex 19 Xcoordinate
    59.382919657509774,       !- Vertex 19 Ycoordinate
    3,                        !- Vertex 19 Zcoordinate
    45.22509391978383,        !- Vertex 20 Xcoordinate
    63.53897249838337,        !- Vertex 20 Ycoordinate
    3,                        !- Vertex 20 Zcoordinate
    41.254624660126865,       !- Vertex 21 Xcoordinate
    65.8133400301449,         !- Vertex 21 Ycoordinate
    3,                        !- Vertex 21 Zcoordinate
    29.822759653441608,       !- Vertex 22 Xcoordinate
    66.19905215222389,        !- Vertex 22 Ycoordinate
    3,                        !- Vertex 22 Zcoordinate
    30.888568294234574,       !- Vertex 23 Xcoordinate
    74.05560978408903,        !- Vertex 23 Ycoordinate
    3,                        !- Vertex 23 Zcoordinate
    41.46597675513476,        !- Vertex 24 Xcoordinate
    73.90389566635713,        !- Vertex 24 Ycoordinate
    3,                        !- Vertex 24 Zcoordinate
    50.08031381620094,        !- Vertex 25 Xcoordinate
    69.78898835740983,        !- Vertex 25 Ycoordinate
    3;                        !- Vertex 25 Zcoordinate

FENESTRATIONSURFACE:DETAILED,
    Block Poly_9_Transport Storey 0 Wall 0001 window,    !- Name
    Window,                   !- Surface Type
    HSCWZ_Public&Industrial_2015_Win,    !- Construction Name
    Block Poly_9_Transport Storey 0 Wall 0001,    !- Building Surface Name
    ,                         !- Outside Boundary Condition Object
    autocalculate,            !- View Factor to Ground
    ,                         !- Frame and Divider Name
    1,                        !- Multiplier
    autocalculate,            !- Number of Vertices
    25.621305742427673,       !- Vertex 1 Xcoordinate
    72.46676684630499,        !- Vertex 1 Ycoordinate
    2.025,                    !- Vertex 1 Zcoordinate
    25.621305742427673,       !- Vertex 2 Xcoordinate
    72.46676684630499,        !- Vertex 2 Ycoordinate
    0.9750000000000001,       !- Vertex 2 Zcoordinate
    20.918543976430346,       !- Vertex 3 Xcoordinate
    69.87598063570051,        !- Vertex 3 Ycoordinate
    0.9750000000000001,       !- Vertex 3 Zcoordinate
    20.918543976430346,       !- Vertex 4 Xcoordinate
    69.87598063570051,        !- Vertex 4 Ycoordinate
    2.025;                    !- Vertex 4 Zcoordinate

FENESTRATIONSURFACE:DETAILED,
    Block Poly_9_Transport Storey 0 Wall 0002 window,    !- Name
    Window,                   !- Surface Type
    HSCWZ_Public&Industrial_2015_Win,    !- Construction Name
    Block Poly_9_Transport Storey 0 Wall 0002,    !- Building Surface Name
    ,                         !- Outside Boundary Condition Object
    autocalculate,            !- View Factor to Ground
    ,                         !- Frame and Divider Name
    1,                        !- Multiplier
    autocalculate,            !- Number of Vertices
    20.914160487408864,       !- Vertex 1 Xcoordinate
    69.87271738318215,        !- Vertex 1 Ycoordinate
    2.025,                    !- Vertex 1 Zcoordinate
    20.914160487408864,       !- Vertex 2 Xcoordinate
    69.87271738318215,        !- Vertex 2 Ycoordinate
    0.9750000000000001,       !- Vertex 2 Zcoordinate
    16.85871118849225,        !- Vertex 3 Xcoordinate
    65.94352506207814,        !- Vertex 3 Ycoordinate
    0.9750000000000001,       !- Vertex 3 Zcoordinate
    16.85871118849225,        !- Vertex 4 Xcoordinate
    65.94352506207814,        !- Vertex 4 Ycoordinate
    2.025;                    !- Vertex 4 Zcoordinate

FENESTRATIONSURFACE:DETAILED,
    Block Poly_9_Transport Storey 0 Wall 0003 window,    !- Name
    Window,                   !- Surface Type
    HSCWZ_Public&Industrial_2015_Win,    !- Construction Name
    Block Poly_9_Transport Storey 0 Wall 0003,    !- Building Surface Name
    ,                         !- Outside Boundary Condition Object
    autocalculate,            !- View Factor to Ground
    ,                         !- Frame and Divider Name
    1,                        !- Multiplier
    autocalculate,            !- Number of Vertices
    16.85502728098404,        !- Vertex 1 Xcoordinate
    65.93919850047189,        !- Vertex 1 Ycoordinate
    2.025,                    !- Vertex 1 Zcoordinate
    16.85502728098404,        !- Vertex 2 Xcoordinate
    65.93919850047189,        !- Vertex 2 Ycoordinate
    0.9750000000000001,       !- Vertex 2 Zcoordinate
    13.550029378497449,       !- Vertex 3 Xcoordinate
    61.22392073227582,        !- Vertex 3 Ycoordinate
    0.9750000000000001,       !- Vertex 3 Zcoordinate
    13.550029378497449,       !- Vertex 4 Xcoordinate
    61.22392073227582,        !- Vertex 4 Ycoordinate
    2.025;                    !- Vertex 4 Zcoordinate

FENESTRATIONSURFACE:DETAILED,
    Block Poly_9_Transport Storey 0 Wall 0004 window,    !- Name
    Window,                   !- Surface Type
    HSCWZ_Public&Industrial_2015_Win,    !- Construction Name
    Block Poly_9_Transport Storey 0 Wall 0004,    !- Building Surface Name
    ,                         !- Outside Boundary Condition Object
    autocalculate,            !- View Factor to Ground
    ,                         !- Frame and Divider Name
    1,                        !- Multiplier
    autocalculate,            !- Number of Vertices
    13.546995020926989,       !- Vertex 1 Xcoordinate
    61.21836527199532,        !- Vertex 1 Ycoordinate
    2.025,                    !- Vertex 1 Zcoordinate
    13.546995020926989,       !- Vertex 2 Xcoordinate
    61.21836527199532,        !- Vertex 2 Ycoordinate
    0.9750000000000001,       !- Vertex 2 Zcoordinate
    10.789346497632504,       !- Vertex 3 Xcoordinate
    54.83383339974051,        !- Vertex 3 Ycoordinate
    0.9750000000000001,       !- Vertex 3 Zcoordinate
    10.789346497632504,       !- Vertex 4 Xcoordinate
    54.83383339974051,        !- Vertex 4 Ycoordinate
    2.025;                    !- Vertex 4 Zcoordinate

FENESTRATIONSURFACE:DETAILED,
    Block Poly_9_Transport Storey 0 Wall 0005 window,    !- Name
    Window,                   !- Surface Type
    HSCWZ_Public&Industrial_2015_Win,    !- Construction Name
    Block Poly_9_Transport Storey 0 Wall 0005,    !- Building Surface Name
    ,                         !- Outside Boundary Condition Object
    autocalculate,            !- View Factor to Ground
    ,                         !- Frame and Divider Name
    1,                        !- Multiplier
    autocalculate,            !- Number of Vertices
    10.784731130766858,       !- Vertex 1 Xcoordinate
    54.83101696268469,        !- Vertex 1 Ycoordinate
    2.025,                    !- Vertex 1 Zcoordinate
    10.784731130766858,       !- Vertex 2 Xcoordinate
    54.83101696268469,        !- Vertex 2 Ycoordinate
    0.9750000000000001,       !- Vertex 2 Zcoordinate
    4.320876656496723,        !- Vertex 3 Xcoordinate
    55.58830759740621,        !- Vertex 3 Ycoordinate
    0.9750000000000001,       !- Vertex 3 Zcoordinate
    4.320876656496723,        !- Vertex 4 Xcoordinate
    55.58830759740621,        !- Vertex 4 Ycoordinate
    2.025;                    !- Vertex 4 Zcoordinate

FENESTRATIONSURFACE:DETAILED,
    Block Poly_9_Transport Storey 0 Wall 0006 window,    !- Name
    Window,                   !- Surface Type
    HSCWZ_Public&Industrial_2015_Win,    !- Construction Name
    Block Poly_9_Transport Storey 0 Wall 0006,    !- Building Surface Name
    ,                         !- Outside Boundary Condition Object
    autocalculate,            !- View Factor to Ground
    ,                         !- Frame and Divider Name
    1,                        !- Multiplier
    autocalculate,            !- Number of Vertices
    4.3154826733501395,       !- Vertex 1 Xcoordinate
    55.5644368282496,         !- Vertex 1 Ycoordinate
    2.025,                    !- Vertex 1 Zcoordinate
    4.3154826733501395,       !- Vertex 2 Xcoordinate
    55.5644368282496,         !- Vertex 2 Ycoordinate
    0.9750000000000001,       !- Vertex 2 Zcoordinate
    0.002158821,              !- Vertex 3 Xcoordinate
    7.113349418623837,        !- Vertex 3 Ycoordinate
    0.9750000000000001,       !- Vertex 3 Zcoordinate
    0.002158821,              !- Vertex 4 Xcoordinate
    7.113349418623837,        !- Vertex 4 Ycoordinate
    2.025;                    !- Vertex 4 Zcoordinate

FENESTRATIONSURFACE:DETAILED,
    Block Poly_9_Transport Storey 0 Wall 0007 window,    !- Name
    Window,                   !- Surface Type
    HSCWZ_Public&Industrial_2015_Win,    !- Construction Name
    Block Poly_9_Transport Storey 0 Wall 0007,    !- Building Surface Name
    ,                         !- Outside Boundary Condition Object
    autocalculate,            !- View Factor to Ground
    ,                         !- Frame and Divider Name
    1,                        !- Multiplier
    autocalculate,            !- Number of Vertices
    0.03068735,               !- Vertex 1 Xcoordinate
    7.085555075312964,        !- Vertex 1 Ycoordinate
    2.025,                    !- Vertex 1 Zcoordinate
    0.03068735,               !- Vertex 2 Xcoordinate
    7.085555075312964,        !- Vertex 2 Ycoordinate
    0.9750000000000001,       !- Vertex 2 Zcoordinate
    61.344007641859214,       !- Vertex 3 Xcoordinate
    0.00354455,               !- Vertex 3 Ycoordinate
    0.9750000000000001,       !- Vertex 3 Zcoordinate
    61.344007641859214,       !- Vertex 4 Xcoordinate
    0.00354455,               !- Vertex 4 Ycoordinate
    2.025;                    !- Vertex 4 Zcoordinate

FENESTRATIONSURFACE:DETAILED,
    Block Poly_9_Transport Storey 0 Wall 0008 window,    !- Name
    Window,                   !- Surface Type
    HSCWZ_Public&Industrial_2015_Win,    !- Construction Name
    Block Poly_9_Transport Storey 0 Wall 0008,    !- Building Surface Name
    ,                         !- Outside Boundary Condition Object
    autocalculate,            !- View Factor to Ground
    ,                         !- Frame and Divider Name
    1,                        !- Multiplier
    autocalculate,            !- Number of Vertices
    61.37685366864913,        !- Vertex 1 Xcoordinate
    0.0242498,                !- Vertex 1 Ycoordinate
    2.025,                    !- Vertex 1 Zcoordinate
    61.37685366864913,        !- Vertex 2 Xcoordinate
    0.0242498,                !- Vertex 2 Ycoordinate
    0.9750000000000001,       !- Vertex 2 Zcoordinate
    65.68989490054649,        !- Vertex 3 Xcoordinate
    48.475350926747545,       !- Vertex 3 Ycoordinate
    0.9750000000000001,       !- Vertex 3 Zcoordinate
    65.68989490054649,        !- Vertex 4 Xcoordinate
    48.475350926747545,       !- Vertex 4 Ycoordinate
    2.025;                    !- Vertex 4 Zcoordinate

FENESTRATIONSURFACE:DETAILED,
    Block Poly_9_Transport Storey 0 Wall 0009 window,    !- Name
    Window,                   !- Surface Type
    HSCWZ_Public&Industrial_2015_Win,    !- Construction Name
    Block Poly_9_Transport Storey 0 Wall 0009,    !- Building Surface Name
    ,                         !- Outside Boundary Condition Object
    autocalculate,            !- View Factor to Ground
    ,                         !- Frame and Divider Name
    1,                        !- Multiplier
    autocalculate,            !- Number of Vertices
    65.68929408050602,        !- Vertex 1 Xcoordinate
    48.499917477464074,       !- Vertex 1 Ycoordinate
    2.025,                    !- Vertex 1 Zcoordinate
    65.68929408050602,        !- Vertex 2 Xcoordinate
    48.499917477464074,       !- Vertex 2 Ycoordinate
    0.9750000000000001,       !- Vertex 2 Zcoordinate
    60.175814407737974,       !- Vertex 3 Xcoordinate
    49.132784682696915,       !- Vertex 3 Ycoordinate
    0.9750000000000001,       !- Vertex 3 Zcoordinate
    60.175814407737974,       !- Vertex 4 Xcoordinate
    49.132784682696915,       !- Vertex 4 Ycoordinate
    2.025;                    !- Vertex 4 Zcoordinate

FENESTRATIONSURFACE:DETAILED,
    Block Poly_9_Transport Storey 0 Wall 0010 window,    !- Name
    Window,                   !- Surface Type
    HSCWZ_Public&Industrial_2015_Win,    !- Construction Name
    Block Poly_9_Transport Storey 0 Wall 0010,    !- Building Surface Name
    ,                         !- Outside Boundary Condition Object
    autocalculate,            !- View Factor to Ground
    ,                         !- Frame and Divider Name
    1,                        !- Multiplier
    autocalculate,            !- Number of Vertices
    60.17202263546272,        !- Vertex 1 Xcoordinate
    49.13755107849883,        !- Vertex 1 Ycoordinate
    2.025,                    !- Vertex 1 Zcoordinate
    60.17202263546272,        !- Vertex 2 Xcoordinate
    49.13755107849883,        !- Vertex 2 Ycoordinate
    0.9750000000000001,       !- Vertex 2 Zcoordinate
    58.109541302259515,       !- Vertex 3 Xcoordinate
    58.02794268548442,        !- Vertex 3 Ycoordinate
    0.9750000000000001,       !- Vertex 3 Zcoordinate
    58.109541302259515,       !- Vertex 4 Xcoordinate
    58.02794268548442,        !- Vertex 4 Ycoordinate
    2.025;                    !- Vertex 4 Zcoordinate

FENESTRATIONSURFACE:DETAILED,
    Block Poly_9_Transport Storey 0 Wall 0011 window,    !- Name
    Window,                   !- Surface Type
    HSCWZ_Public&Industrial_2015_Win,    !- Construction Name
    Block Poly_9_Transport Storey 0 Wall 0011,    !- Building Surface Name
    ,                         !- Outside Boundary Condition Object
    autocalculate,            !- View Factor to Ground
    ,                         !- Frame and Divider Name
    1,                        !- Multiplier
    autocalculate,            !- Number of Vertices
    58.10744655392834,        !- Vertex 1 Xcoordinate
    58.03473586000945,        !- Vertex 1 Ycoordinate
    2.025,                    !- Vertex 1 Zcoordinate
    58.10744655392834,        !- Vertex 2 Xcoordinate
    58.03473586000945,        !- Vertex 2 Ycoordinate
    0.9750000000000001,       !- Vertex 2 Zcoordinate
    55.984620721442596,       !- Vertex 3 Xcoordinate
    62.71710695402255,        !- Vertex 3 Ycoordinate
    0.9750000000000001,       !- Vertex 3 Zcoordinate
    55.984620721442596,       !- Vertex 4 Xcoordinate
    62.71710695402255,        !- Vertex 4 Ycoordinate
    2.025;                    !- Vertex 4 Zcoordinate

FENESTRATIONSURFACE:DETAILED,
    Block Poly_9_Transport Storey 0 Wall 0012 window,    !- Name
    Window,                   !- Surface Type
    HSCWZ_Public&Industrial_2015_Win,    !- Construction Name
    Block Poly_9_Transport Storey 0 Wall 0012,    !- Building Surface Name
    ,                         !- Outside Boundary Condition Object
    autocalculate,            !- View Factor to Ground
    ,                         !- Frame and Divider Name
    1,                        !- Multiplier
    autocalculate,            !- Number of Vertices
    55.98234488496097,        !- Vertex 1 Xcoordinate
    62.721241821149135,       !- Vertex 1 Ycoordinate
    2.025,                    !- Vertex 1 Zcoordinate
    55.98234488496097,        !- Vertex 2 Xcoordinate
    62.721241821149135,       !- Vertex 2 Ycoordinate
    0.9750000000000001,       !- Vertex 2 Zcoordinate
    53.55804942715907,        !- Vertex 3 Xcoordinate
    66.30033524605841,        !- Vertex 3 Ycoordinate
    0.9750000000000001,       !- Vertex 3 Zcoordinate
    53.55804942715907,        !- Vertex 4 Xcoordinate
    66.30033524605841,        !- Vertex 4 Ycoordinate
    2.025;                    !- Vertex 4 Zcoordinate

FENESTRATIONSURFACE:DETAILED,
    Block Poly_9_Transport Storey 0 Wall 0013 window,    !- Name
    Window,                   !- Surface Type
    HSCWZ_Public&Industrial_2015_Win,    !- Construction Name
    Block Poly_9_Transport Storey 0 Wall 0013,    !- Building Surface Name
    ,                         !- Outside Boundary Condition Object
    autocalculate,            !- View Factor to Ground
    ,                         !- Frame and Divider Name
    1,                        !- Multiplier
    autocalculate,            !- Number of Vertices
    53.555097804944324,       !- Vertex 1 Xcoordinate
    66.30387001499557,        !- Vertex 1 Ycoordinate
    2.025,                    !- Vertex 1 Zcoordinate
    53.555097804944324,       !- Vertex 2 Xcoordinate
    66.30387001499557,        !- Vertex 2 Ycoordinate
    0.9750000000000001,       !- Vertex 2 Zcoordinate
    50.082052077674945,       !- Vertex 3 Xcoordinate
    69.78724492652319,        !- Vertex 3 Ycoordinate
    0.9750000000000001,       !- Vertex 3 Zcoordinate
    50.082052077674945,       !- Vertex 4 Xcoordinate
    69.78724492652319,        !- Vertex 4 Ycoordinate
    2.025;                    !- Vertex 4 Zcoordinate

FENESTRATIONSURFACE:DETAILED,
    Block Poly_9_Transport Storey 0 Wall 0014 window,    !- Name
    Window,                   !- Surface Type
    HSCWZ_Public&Industrial_2015_Win,    !- Construction Name
    Block Poly_9_Transport Storey 0 Wall 0014,    !- Building Surface Name
    ,                         !- Outside Boundary Condition Object
    autocalculate,            !- View Factor to Ground
    ,                         !- Frame and Divider Name
    1,                        !- Multiplier
    autocalculate,            !- Number of Vertices
    50.076006648019685,       !- Vertex 1 Xcoordinate
    69.79104581106431,        !- Vertex 1 Ycoordinate
    2.025,                    !- Vertex 1 Zcoordinate
    50.076006648019685,       !- Vertex 2 Xcoordinate
    69.79104581106431,        !- Vertex 2 Ycoordinate
    0.9750000000000001,       !- Vertex 2 Zcoordinate
    41.47028392407272,        !- Vertex 3 Xcoordinate
    73.90183821270266,        !- Vertex 3 Ycoordinate
    0.9750000000000001,       !- Vertex 3 Zcoordinate
    41.47028392407272,        !- Vertex 4 Xcoordinate
    73.90183821270266,        !- Vertex 4 Ycoordinate
    2.025;                    !- Vertex 4 Zcoordinate

FENESTRATIONSURFACE:DETAILED,
    Block Poly_9_Transport Storey 0 Wall 0015 window,    !- Name
    Window,                   !- Surface Type
    HSCWZ_Public&Industrial_2015_Win,    !- Construction Name
    Block Poly_9_Transport Storey 0 Wall 0015,    !- Building Surface Name
    ,                         !- Outside Boundary Condition Object
    autocalculate,            !- View Factor to Ground
    ,                         !- Frame and Divider Name
    1,                        !- Multiplier
    autocalculate,            !- Number of Vertices
    41.46068805131168,        !- Vertex 1 Xcoordinate
    73.90397152341599,        !- Vertex 1 Ycoordinate
    2.025,                    !- Vertex 1 Zcoordinate
    41.46068805131168,        !- Vertex 2 Xcoordinate
    73.90397152341599,        !- Vertex 2 Ycoordinate
    0.9750000000000001,       !- Vertex 2 Zcoordinate
    30.89385699869794,        !- Vertex 3 Xcoordinate
    74.05553392703017,        !- Vertex 3 Ycoordinate
    0.9750000000000001,       !- Vertex 3 Zcoordinate
    30.89385699869794,        !- Vertex 4 Xcoordinate
    74.05553392703017,        !- Vertex 4 Ycoordinate
    2.025;                    !- Vertex 4 Zcoordinate

FENESTRATIONSURFACE:DETAILED,
    Block Poly_9_Transport Storey 0 Wall 0016 window,    !- Name
    Window,                   !- Surface Type
    HSCWZ_Public&Industrial_2015_Win,    !- Construction Name
    Block Poly_9_Transport Storey 0 Wall 0016,    !- Building Surface Name
    ,                         !- Outside Boundary Condition Object
    autocalculate,            !- View Factor to Ground
    ,                         !- Frame and Divider Name
    1,                        !- Multiplier
    autocalculate,            !- Number of Vertices
    30.88803539014695,        !- Vertex 1 Xcoordinate
    74.0516815052731,         !- Vertex 1 Ycoordinate
    2.025,                    !- Vertex 1 Zcoordinate
    30.88803539014695,        !- Vertex 2 Xcoordinate
    74.0516815052731,         !- Vertex 2 Ycoordinate
    0.9750000000000001,       !- Vertex 2 Zcoordinate
    29.823292557878478,       !- Vertex 3 Xcoordinate
    66.20298043103982,        !- Vertex 3 Ycoordinate
    0.9750000000000001,       !- Vertex 3 Zcoordinate
    29.823292557878478,       !- Vertex 4 Xcoordinate
    66.20298043103982,        !- Vertex 4 Ycoordinate
    2.025;                    !- Vertex 4 Zcoordinate

FENESTRATIONSURFACE:DETAILED,
    Block Poly_9_Transport Storey 0 Wall 0017 window,    !- Name
    Window,                   !- Surface Type
    HSCWZ_Public&Industrial_2015_Win,    !- Construction Name
    Block Poly_9_Transport Storey 0 Wall 0017,    !- Building Surface Name
    ,                         !- Outside Boundary Condition Object
    autocalculate,            !- View Factor to Ground
    ,                         !- Frame and Divider Name
    1,                        !- Multiplier
    autocalculate,            !- Number of Vertices
    29.828475586061483,       !- Vertex 1 Xcoordinate
    66.19885929616285,        !- Vertex 1 Ycoordinate
    2.025,                    !- Vertex 1 Zcoordinate
    29.828475586061483,       !- Vertex 2 Xcoordinate
    66.19885929616285,        !- Vertex 2 Ycoordinate
    0.9750000000000001,       !- Vertex 2 Zcoordinate
    41.248908727972655,       !- Vertex 3 Xcoordinate
    65.81353288620593,        !- Vertex 3 Ycoordinate
    0.9750000000000001,       !- Vertex 3 Zcoordinate
    41.248908727972655,       !- Vertex 4 Xcoordinate
    65.81353288620593,        !- Vertex 4 Ycoordinate
    2.025;                    !- Vertex 4 Zcoordinate

FENESTRATIONSURFACE:DETAILED,
    Block Poly_9_Transport Storey 0 Wall 0018 window,    !- Name
    Window,                   !- Surface Type
    HSCWZ_Public&Industrial_2015_Win,    !- Construction Name
    Block Poly_9_Transport Storey 0 Wall 0018,    !- Building Surface Name
    ,                         !- Outside Boundary Condition Object
    autocalculate,            !- View Factor to Ground
    ,                         !- Frame and Divider Name
    1,                        !- Multiplier
    autocalculate,            !- Number of Vertices
    41.256609895105825,       !- Vertex 1 Xcoordinate
    65.81220284637902,        !- Vertex 1 Ycoordinate
    2.025,                    !- Vertex 1 Zcoordinate
    41.256609895105825,       !- Vertex 2 Xcoordinate
    65.81220284637902,        !- Vertex 2 Ycoordinate
    0.9750000000000001,       !- Vertex 2 Zcoordinate
    45.22310868527053,        !- Vertex 3 Xcoordinate
    63.54010968214925,        !- Vertex 3 Ycoordinate
    0.9750000000000001,       !- Vertex 3 Zcoordinate
    45.22310868527053,        !- Vertex 4 Xcoordinate
    63.54010968214925,        !- Vertex 4 Ycoordinate
    2.025;                    !- Vertex 4 Zcoordinate

FENESTRATIONSURFACE:DETAILED,
    Block Poly_9_Transport Storey 0 Wall 0019 window,    !- Name
    Window,                   !- Surface Type
    HSCWZ_Public&Industrial_2015_Win,    !- Construction Name
    Block Poly_9_Transport Storey 0 Wall 0019,    !- Building Surface Name
    ,                         !- Outside Boundary Condition Object
    autocalculate,            !- View Factor to Ground
    ,                         !- Frame and Divider Name
    1,                        !- Multiplier
    autocalculate,            !- Number of Vertices
    45.22697035016591,        !- Vertex 1 Xcoordinate
    63.53689447196294,        !- Vertex 1 Ycoordinate
    2.025,                    !- Vertex 1 Zcoordinate
    45.22697035016591,        !- Vertex 2 Xcoordinate
    63.53689447196294,        !- Vertex 2 Ycoordinate
    0.9750000000000001,       !- Vertex 2 Zcoordinate
    48.9760780209619,         !- Vertex 3 Xcoordinate
    59.38499768393021,        !- Vertex 3 Ycoordinate
    0.9750000000000001,       !- Vertex 3 Zcoordinate
    48.9760780209619,         !- Vertex 4 Xcoordinate
    59.38499768393021,        !- Vertex 4 Ycoordinate
    2.025;                    !- Vertex 4 Zcoordinate

FENESTRATIONSURFACE:DETAILED,
    Block Poly_9_Transport Storey 0 Wall 0020 window,    !- Name
    Window,                   !- Surface Type
    HSCWZ_Public&Industrial_2015_Win,    !- Construction Name
    Block Poly_9_Transport Storey 0 Wall 0020,    !- Building Surface Name
    ,                         !- Outside Boundary Condition Object
    autocalculate,            !- View Factor to Ground
    ,                         !- Frame and Divider Name
    1,                        !- Multiplier
    autocalculate,            !- Number of Vertices
    48.97930598139181,        !- Vertex 1 Xcoordinate
    59.38079372423655,        !- Vertex 1 Ycoordinate
    2.025,                    !- Vertex 1 Zcoordinate
    48.97930598139181,        !- Vertex 2 Xcoordinate
    59.38079372423655,        !- Vertex 2 Ycoordinate
    0.9750000000000001,       !- Vertex 2 Zcoordinate
    51.67966324955807,        !- Vertex 3 Xcoordinate
    55.133179044323505,       !- Vertex 3 Ycoordinate
    0.9750000000000001,       !- Vertex 3 Zcoordinate
    51.67966324955807,        !- Vertex 4 Xcoordinate
    55.133179044323505,       !- Vertex 4 Ycoordinate
    2.025;                    !- Vertex 4 Zcoordinate

FENESTRATIONSURFACE:DETAILED,
    Block Poly_9_Transport Storey 0 Wall 0021 window,    !- Name
    Window,                   !- Surface Type
    HSCWZ_Public&Industrial_2015_Win,    !- Construction Name
    Block Poly_9_Transport Storey 0 Wall 0021,    !- Building Surface Name
    ,                         !- Outside Boundary Condition Object
    autocalculate,            !- View Factor to Ground
    ,                         !- Frame and Divider Name
    1,                        !- Multiplier
    autocalculate,            !- Number of Vertices
    51.681835050304656,       !- Vertex 1 Xcoordinate
    55.12843587751407,        !- Vertex 1 Ycoordinate
    2.025,                    !- Vertex 1 Zcoordinate
    51.681835050304656,       !- Vertex 2 Xcoordinate
    55.12843587751407,        !- Vertex 2 Ycoordinate
    0.9750000000000001,       !- Vertex 2 Zcoordinate
    53.32073567381012,        !- Vertex 3 Xcoordinate
    49.89920327217412,        !- Vertex 3 Ycoordinate
    0.9750000000000001,       !- Vertex 3 Zcoordinate
    53.32073567381012,        !- Vertex 4 Xcoordinate
    49.89920327217412,        !- Vertex 4 Ycoordinate
    2.025;                    !- Vertex 4 Zcoordinate

FENESTRATIONSURFACE:DETAILED,
    Block Poly_9_Transport Storey 0 Wall 0022 window,    !- Name
    Window,                   !- Surface Type
    HSCWZ_Public&Industrial_2015_Win,    !- Construction Name
    Block Poly_9_Transport Storey 0 Wall 0022,    !- Building Surface Name
    ,                         !- Outside Boundary Condition Object
    autocalculate,            !- View Factor to Ground
    ,                         !- Frame and Divider Name
    1,                        !- Multiplier
    autocalculate,            !- Number of Vertices
    53.30438114667213,        !- Vertex 1 Xcoordinate
    49.89860631557136,        !- Vertex 1 Ycoordinate
    2.025,                    !- Vertex 1 Zcoordinate
    53.30438114667213,        !- Vertex 2 Xcoordinate
    49.89860631557136,        !- Vertex 2 Ycoordinate
    0.9750000000000001,       !- Vertex 2 Zcoordinate
    18.989135301444737,       !- Vertex 3 Xcoordinate
    53.935119628590066,       !- Vertex 3 Ycoordinate
    0.9750000000000001,       !- Vertex 3 Zcoordinate
    18.989135301444737,       !- Vertex 4 Xcoordinate
    53.935119628590066,       !- Vertex 4 Ycoordinate
    2.025;                    !- Vertex 4 Zcoordinate

FENESTRATIONSURFACE:DETAILED,
    Block Poly_9_Transport Storey 0 Wall 0023 window,    !- Name
    Window,                   !- Surface Type
    HSCWZ_Public&Industrial_2015_Win,    !- Construction Name
    Block Poly_9_Transport Storey 0 Wall 0023,    !- Building Surface Name
    ,                         !- Outside Boundary Condition Object
    autocalculate,            !- View Factor to Ground
    ,                         !- Frame and Divider Name
    1,                        !- Multiplier
    autocalculate,            !- Number of Vertices
    18.97309054998646,        !- Vertex 1 Xcoordinate
    53.93950742328493,        !- Vertex 1 Ycoordinate
    2.025,                    !- Vertex 1 Zcoordinate
    18.97309054998646,        !- Vertex 2 Xcoordinate
    53.93950742328493,        !- Vertex 2 Ycoordinate
    0.9750000000000001,       !- Vertex 2 Zcoordinate
    21.230922981575482,       !- Vertex 3 Xcoordinate
    58.669807910603005,       !- Vertex 3 Ycoordinate
    0.9750000000000001,       !- Vertex 3 Zcoordinate
    21.230922981575482,       !- Vertex 4 Xcoordinate
    58.669807910603005,       !- Vertex 4 Ycoordinate
    2.025;                    !- Vertex 4 Zcoordinate

FENESTRATIONSURFACE:DETAILED,
    Block Poly_9_Transport Storey 0 Wall 0024 window,    !- Name
    Window,                   !- Surface Type
    HSCWZ_Public&Industrial_2015_Win,    !- Construction Name
    Block Poly_9_Transport Storey 0 Wall 0024,    !- Building Surface Name
    ,                         !- Outside Boundary Condition Object
    autocalculate,            !- View Factor to Ground
    ,                         !- Frame and Divider Name
    1,                        !- Multiplier
    autocalculate,            !- Number of Vertices
    21.23476731738198,        !- Vertex 1 Xcoordinate
    58.675351754558505,       !- Vertex 1 Ycoordinate
    2.025,                    !- Vertex 1 Zcoordinate
    21.23476731738198,        !- Vertex 2 Xcoordinate
    58.675351754558505,       !- Vertex 2 Ycoordinate
    0.9750000000000001,       !- Vertex 2 Zcoordinate
    26.657917827175638,       !- Vertex 3 Xcoordinate
    65.02165149032953,        !- Vertex 3 Ycoordinate
    0.9750000000000001,       !- Vertex 3 Zcoordinate
    26.657917827175638,       !- Vertex 4 Xcoordinate
    65.02165149032953,        !- Vertex 4 Ycoordinate
    2.025;                    !- Vertex 4 Zcoordinate

FENESTRATIONSURFACE:DETAILED,
    Block Poly_9_Transport Storey 0 Wall 0025 window,    !- Name
    Window,                   !- Surface Type
    HSCWZ_Public&Industrial_2015_Win,    !- Construction Name
    Block Poly_9_Transport Storey 0 Wall 0025,    !- Building Surface Name
    ,                         !- Outside Boundary Condition Object
    autocalculate,            !- View Factor to Ground
    ,                         !- Frame and Divider Name
    1,                        !- Multiplier
    autocalculate,            !- Number of Vertices
    26.660113630400243,       !- Vertex 1 Xcoordinate
    65.0285494343834,         !- Vertex 1 Ycoordinate
    2.025,                    !- Vertex 1 Zcoordinate
    26.660113630400243,       !- Vertex 2 Xcoordinate
    65.0285494343834,         !- Vertex 2 Ycoordinate
    0.9750000000000001,       !- Vertex 2 Zcoordinate
    25.624177963365128,       !- Vertex 3 Xcoordinate
    72.46434191824031,        !- Vertex 3 Ycoordinate
    0.9750000000000001,       !- Vertex 3 Zcoordinate
    25.624177963365128,       !- Vertex 4 Xcoordinate
    72.46434191824031,        !- Vertex 4 Ycoordinate
    2.025;                    !- Vertex 4 Zcoordinate

FENESTRATIONSURFACE:DETAILED,
    Block Poly_9_Transport Storey 1 Wall 0001 window,    !- Name
    Window,                   !- Surface Type
    HSCWZ_Public&Industrial_2015_Win,    !- Construction Name
    Block Poly_9_Transport Storey 1 Wall 0001,    !- Building Surface Name
    ,                         !- Outside Boundary Condition Object
    autocalculate,            !- View Factor to Ground
    ,                         !- Frame and Divider Name
    1,                        !- Multiplier
    autocalculate,            !- Number of Vertices
    25.621305742427673,       !- Vertex 1 Xcoordinate
    72.46676684630499,        !- Vertex 1 Ycoordinate
    5.025,                    !- Vertex 1 Zcoordinate
    25.621305742427673,       !- Vertex 2 Xcoordinate
    72.46676684630499,        !- Vertex 2 Ycoordinate
    3.975,                    !- Vertex 2 Zcoordinate
    20.918543976430346,       !- Vertex 3 Xcoordinate
    69.87598063570051,        !- Vertex 3 Ycoordinate
    3.975,                    !- Vertex 3 Zcoordinate
    20.918543976430346,       !- Vertex 4 Xcoordinate
    69.87598063570051,        !- Vertex 4 Ycoordinate
    5.025;                    !- Vertex 4 Zcoordinate

FENESTRATIONSURFACE:DETAILED,
    Block Poly_9_Transport Storey 1 Wall 0002 window,    !- Name
    Window,                   !- Surface Type
    HSCWZ_Public&Industrial_2015_Win,    !- Construction Name
    Block Poly_9_Transport Storey 1 Wall 0002,    !- Building Surface Name
    ,                         !- Outside Boundary Condition Object
    autocalculate,            !- View Factor to Ground
    ,                         !- Frame and Divider Name
    1,                        !- Multiplier
    autocalculate,            !- Number of Vertices
    20.914160487408864,       !- Vertex 1 Xcoordinate
    69.87271738318215,        !- Vertex 1 Ycoordinate
    5.025,                    !- Vertex 1 Zcoordinate
    20.914160487408864,       !- Vertex 2 Xcoordinate
    69.87271738318215,        !- Vertex 2 Ycoordinate
    3.975,                    !- Vertex 2 Zcoordinate
    16.85871118849225,        !- Vertex 3 Xcoordinate
    65.94352506207814,        !- Vertex 3 Ycoordinate
    3.975,                    !- Vertex 3 Zcoordinate
    16.85871118849225,        !- Vertex 4 Xcoordinate
    65.94352506207814,        !- Vertex 4 Ycoordinate
    5.025;                    !- Vertex 4 Zcoordinate

FENESTRATIONSURFACE:DETAILED,
    Block Poly_9_Transport Storey 1 Wall 0003 window,    !- Name
    Window,                   !- Surface Type
    HSCWZ_Public&Industrial_2015_Win,    !- Construction Name
    Block Poly_9_Transport Storey 1 Wall 0003,    !- Building Surface Name
    ,                         !- Outside Boundary Condition Object
    autocalculate,            !- View Factor to Ground
    ,                         !- Frame and Divider Name
    1,                        !- Multiplier
    autocalculate,            !- Number of Vertices
    16.85502728098404,        !- Vertex 1 Xcoordinate
    65.93919850047189,        !- Vertex 1 Ycoordinate
    5.025,                    !- Vertex 1 Zcoordinate
    16.85502728098404,        !- Vertex 2 Xcoordinate
    65.93919850047189,        !- Vertex 2 Ycoordinate
    3.975,                    !- Vertex 2 Zcoordinate
    13.550029378497449,       !- Vertex 3 Xcoordinate
    61.22392073227582,        !- Vertex 3 Ycoordinate
    3.975,                    !- Vertex 3 Zcoordinate
    13.550029378497449,       !- Vertex 4 Xcoordinate
    61.22392073227582,        !- Vertex 4 Ycoordinate
    5.025;                    !- Vertex 4 Zcoordinate

FENESTRATIONSURFACE:DETAILED,
    Block Poly_9_Transport Storey 1 Wall 0004 window,    !- Name
    Window,                   !- Surface Type
    HSCWZ_Public&Industrial_2015_Win,    !- Construction Name
    Block Poly_9_Transport Storey 1 Wall 0004,    !- Building Surface Name
    ,                         !- Outside Boundary Condition Object
    autocalculate,            !- View Factor to Ground
    ,                         !- Frame and Divider Name
    1,                        !- Multiplier
    autocalculate,            !- Number of Vertices
    13.546995020926989,       !- Vertex 1 Xcoordinate
    61.21836527199532,        !- Vertex 1 Ycoordinate
    5.025,                    !- Vertex 1 Zcoordinate
    13.546995020926989,       !- Vertex 2 Xcoordinate
    61.21836527199532,        !- Vertex 2 Ycoordinate
    3.975,                    !- Vertex 2 Zcoordinate
    10.789346497632504,       !- Vertex 3 Xcoordinate
    54.83383339974051,        !- Vertex 3 Ycoordinate
    3.975,                    !- Vertex 3 Zcoordinate
    10.789346497632504,       !- Vertex 4 Xcoordinate
    54.83383339974051,        !- Vertex 4 Ycoordinate
    5.025;                    !- Vertex 4 Zcoordinate

FENESTRATIONSURFACE:DETAILED,
    Block Poly_9_Transport Storey 1 Wall 0005 window,    !- Name
    Window,                   !- Surface Type
    HSCWZ_Public&Industrial_2015_Win,    !- Construction Name
    Block Poly_9_Transport Storey 1 Wall 0005,    !- Building Surface Name
    ,                         !- Outside Boundary Condition Object
    autocalculate,            !- View Factor to Ground
    ,                         !- Frame and Divider Name
    1,                        !- Multiplier
    autocalculate,            !- Number of Vertices
    10.784731130766858,       !- Vertex 1 Xcoordinate
    54.83101696268469,        !- Vertex 1 Ycoordinate
    5.025,                    !- Vertex 1 Zcoordinate
    10.784731130766858,       !- Vertex 2 Xcoordinate
    54.83101696268469,        !- Vertex 2 Ycoordinate
    3.975,                    !- Vertex 2 Zcoordinate
    4.320876656496723,        !- Vertex 3 Xcoordinate
    55.58830759740621,        !- Vertex 3 Ycoordinate
    3.975,                    !- Vertex 3 Zcoordinate
    4.320876656496723,        !- Vertex 4 Xcoordinate
    55.58830759740621,        !- Vertex 4 Ycoordinate
    5.025;                    !- Vertex 4 Zcoordinate

FENESTRATIONSURFACE:DETAILED,
    Block Poly_9_Transport Storey 1 Wall 0006 window,    !- Name
    Window,                   !- Surface Type
    HSCWZ_Public&Industrial_2015_Win,    !- Construction Name
    Block Poly_9_Transport Storey 1 Wall 0006,    !- Building Surface Name
    ,                         !- Outside Boundary Condition Object
    autocalculate,            !- View Factor to Ground
    ,                         !- Frame and Divider Name
    1,                        !- Multiplier
    autocalculate,            !- Number of Vertices
    4.3154826733501395,       !- Vertex 1 Xcoordinate
    55.5644368282496,         !- Vertex 1 Ycoordinate
    5.025,                    !- Vertex 1 Zcoordinate
    4.3154826733501395,       !- Vertex 2 Xcoordinate
    55.5644368282496,         !- Vertex 2 Ycoordinate
    3.975,                    !- Vertex 2 Zcoordinate
    0.002158821,              !- Vertex 3 Xcoordinate
    7.113349418623837,        !- Vertex 3 Ycoordinate
    3.975,                    !- Vertex 3 Zcoordinate
    0.002158821,              !- Vertex 4 Xcoordinate
    7.113349418623837,        !- Vertex 4 Ycoordinate
    5.025;                    !- Vertex 4 Zcoordinate

FENESTRATIONSURFACE:DETAILED,
    Block Poly_9_Transport Storey 1 Wall 0007 window,    !- Name
    Window,                   !- Surface Type
    HSCWZ_Public&Industrial_2015_Win,    !- Construction Name
    Block Poly_9_Transport Storey 1 Wall 0007,    !- Building Surface Name
    ,                         !- Outside Boundary Condition Object
    autocalculate,            !- View Factor to Ground
    ,                         !- Frame and Divider Name
    1,                        !- Multiplier
    autocalculate,            !- Number of Vertices
    0.03068735,               !- Vertex 1 Xcoordinate
    7.085555075312964,        !- Vertex 1 Ycoordinate
    5.025,                    !- Vertex 1 Zcoordinate
    0.03068735,               !- Vertex 2 Xcoordinate
    7.085555075312964,        !- Vertex 2 Ycoordinate
    3.975,                    !- Vertex 2 Zcoordinate
    61.344007641859214,       !- Vertex 3 Xcoordinate
    0.00354455,               !- Vertex 3 Ycoordinate
    3.975,                    !- Vertex 3 Zcoordinate
    61.344007641859214,       !- Vertex 4 Xcoordinate
    0.00354455,               !- Vertex 4 Ycoordinate
    5.025;                    !- Vertex 4 Zcoordinate

FENESTRATIONSURFACE:DETAILED,
    Block Poly_9_Transport Storey 1 Wall 0008 window,    !- Name
    Window,                   !- Surface Type
    HSCWZ_Public&Industrial_2015_Win,    !- Construction Name
    Block Poly_9_Transport Storey 1 Wall 0008,    !- Building Surface Name
    ,                         !- Outside Boundary Condition Object
    autocalculate,            !- View Factor to Ground
    ,                         !- Frame and Divider Name
    1,                        !- Multiplier
    autocalculate,            !- Number of Vertices
    61.37685366864913,        !- Vertex 1 Xcoordinate
    0.0242498,                !- Vertex 1 Ycoordinate
    5.025,                    !- Vertex 1 Zcoordinate
    61.37685366864913,        !- Vertex 2 Xcoordinate
    0.0242498,                !- Vertex 2 Ycoordinate
    3.975,                    !- Vertex 2 Zcoordinate
    65.68989490054649,        !- Vertex 3 Xcoordinate
    48.475350926747545,       !- Vertex 3 Ycoordinate
    3.975,                    !- Vertex 3 Zcoordinate
    65.68989490054649,        !- Vertex 4 Xcoordinate
    48.475350926747545,       !- Vertex 4 Ycoordinate
    5.025;                    !- Vertex 4 Zcoordinate

FENESTRATIONSURFACE:DETAILED,
    Block Poly_9_Transport Storey 1 Wall 0009 window,    !- Name
    Window,                   !- Surface Type
    HSCWZ_Public&Industrial_2015_Win,    !- Construction Name
    Block Poly_9_Transport Storey 1 Wall 0009,    !- Building Surface Name
    ,                         !- Outside Boundary Condition Object
    autocalculate,            !- View Factor to Ground
    ,                         !- Frame and Divider Name
    1,                        !- Multiplier
    autocalculate,            !- Number of Vertices
    65.68929408050602,        !- Vertex 1 Xcoordinate
    48.499917477464074,       !- Vertex 1 Ycoordinate
    5.025,                    !- Vertex 1 Zcoordinate
    65.68929408050602,        !- Vertex 2 Xcoordinate
    48.499917477464074,       !- Vertex 2 Ycoordinate
    3.975,                    !- Vertex 2 Zcoordinate
    60.175814407737974,       !- Vertex 3 Xcoordinate
    49.132784682696915,       !- Vertex 3 Ycoordinate
    3.975,                    !- Vertex 3 Zcoordinate
    60.175814407737974,       !- Vertex 4 Xcoordinate
    49.132784682696915,       !- Vertex 4 Ycoordinate
    5.025;                    !- Vertex 4 Zcoordinate

FENESTRATIONSURFACE:DETAILED,
    Block Poly_9_Transport Storey 1 Wall 0010 window,    !- Name
    Window,                   !- Surface Type
    HSCWZ_Public&Industrial_2015_Win,    !- Construction Name
    Block Poly_9_Transport Storey 1 Wall 0010,    !- Building Surface Name
    ,                         !- Outside Boundary Condition Object
    autocalculate,            !- View Factor to Ground
    ,                         !- Frame and Divider Name
    1,                        !- Multiplier
    autocalculate,            !- Number of Vertices
    60.17202263546272,        !- Vertex 1 Xcoordinate
    49.13755107849883,        !- Vertex 1 Ycoordinate
    5.025,                    !- Vertex 1 Zcoordinate
    60.17202263546272,        !- Vertex 2 Xcoordinate
    49.13755107849883,        !- Vertex 2 Ycoordinate
    3.975,                    !- Vertex 2 Zcoordinate
    58.109541302259515,       !- Vertex 3 Xcoordinate
    58.02794268548442,        !- Vertex 3 Ycoordinate
    3.975,                    !- Vertex 3 Zcoordinate
    58.109541302259515,       !- Vertex 4 Xcoordinate
    58.02794268548442,        !- Vertex 4 Ycoordinate
    5.025;                    !- Vertex 4 Zcoordinate

FENESTRATIONSURFACE:DETAILED,
    Block Poly_9_Transport Storey 1 Wall 0011 window,    !- Name
    Window,                   !- Surface Type
    HSCWZ_Public&Industrial_2015_Win,    !- Construction Name
    Block Poly_9_Transport Storey 1 Wall 0011,    !- Building Surface Name
    ,                         !- Outside Boundary Condition Object
    autocalculate,            !- View Factor to Ground
    ,                         !- Frame and Divider Name
    1,                        !- Multiplier
    autocalculate,            !- Number of Vertices
    58.10744655392834,        !- Vertex 1 Xcoordinate
    58.03473586000945,        !- Vertex 1 Ycoordinate
    5.025,                    !- Vertex 1 Zcoordinate
    58.10744655392834,        !- Vertex 2 Xcoordinate
    58.03473586000945,        !- Vertex 2 Ycoordinate
    3.975,                    !- Vertex 2 Zcoordinate
    55.984620721442596,       !- Vertex 3 Xcoordinate
    62.71710695402255,        !- Vertex 3 Ycoordinate
    3.975,                    !- Vertex 3 Zcoordinate
    55.984620721442596,       !- Vertex 4 Xcoordinate
    62.71710695402255,        !- Vertex 4 Ycoordinate
    5.025;                    !- Vertex 4 Zcoordinate

FENESTRATIONSURFACE:DETAILED,
    Block Poly_9_Transport Storey 1 Wall 0012 window,    !- Name
    Window,                   !- Surface Type
    HSCWZ_Public&Industrial_2015_Win,    !- Construction Name
    Block Poly_9_Transport Storey 1 Wall 0012,    !- Building Surface Name
    ,                         !- Outside Boundary Condition Object
    autocalculate,            !- View Factor to Ground
    ,                         !- Frame and Divider Name
    1,                        !- Multiplier
    autocalculate,            !- Number of Vertices
    55.98234488496097,        !- Vertex 1 Xcoordinate
    62.721241821149135,       !- Vertex 1 Ycoordinate
    5.025,                    !- Vertex 1 Zcoordinate
    55.98234488496097,        !- Vertex 2 Xcoordinate
    62.721241821149135,       !- Vertex 2 Ycoordinate
    3.975,                    !- Vertex 2 Zcoordinate
    53.55804942715907,        !- Vertex 3 Xcoordinate
    66.30033524605841,        !- Vertex 3 Ycoordinate
    3.975,                    !- Vertex 3 Zcoordinate
    53.55804942715907,        !- Vertex 4 Xcoordinate
    66.30033524605841,        !- Vertex 4 Ycoordinate
    5.025;                    !- Vertex 4 Zcoordinate

FENESTRATIONSURFACE:DETAILED,
    Block Poly_9_Transport Storey 1 Wall 0013 window,    !- Name
    Window,                   !- Surface Type
    HSCWZ_Public&Industrial_2015_Win,    !- Construction Name
    Block Poly_9_Transport Storey 1 Wall 0013,    !- Building Surface Name
    ,                         !- Outside Boundary Condition Object
    autocalculate,            !- View Factor to Ground
    ,                         !- Frame and Divider Name
    1,                        !- Multiplier
    autocalculate,            !- Number of Vertices
    53.555097804944324,       !- Vertex 1 Xcoordinate
    66.30387001499557,        !- Vertex 1 Ycoordinate
    5.025,                    !- Vertex 1 Zcoordinate
    53.555097804944324,       !- Vertex 2 Xcoordinate
    66.30387001499557,        !- Vertex 2 Ycoordinate
    3.975,                    !- Vertex 2 Zcoordinate
    50.082052077674945,       !- Vertex 3 Xcoordinate
    69.78724492652319,        !- Vertex 3 Ycoordinate
    3.975,                    !- Vertex 3 Zcoordinate
    50.082052077674945,       !- Vertex 4 Xcoordinate
    69.78724492652319,        !- Vertex 4 Ycoordinate
    5.025;                    !- Vertex 4 Zcoordinate

FENESTRATIONSURFACE:DETAILED,
    Block Poly_9_Transport Storey 1 Wall 0014 window,    !- Name
    Window,                   !- Surface Type
    HSCWZ_Public&Industrial_2015_Win,    !- Construction Name
    Block Poly_9_Transport Storey 1 Wall 0014,    !- Building Surface Name
    ,                         !- Outside Boundary Condition Object
    autocalculate,            !- View Factor to Ground
    ,                         !- Frame and Divider Name
    1,                        !- Multiplier
    autocalculate,            !- Number of Vertices
    50.076006648019685,       !- Vertex 1 Xcoordinate
    69.79104581106431,        !- Vertex 1 Ycoordinate
    5.025,                    !- Vertex 1 Zcoordinate
    50.076006648019685,       !- Vertex 2 Xcoordinate
    69.79104581106431,        !- Vertex 2 Ycoordinate
    3.975,                    !- Vertex 2 Zcoordinate
    41.47028392407272,        !- Vertex 3 Xcoordinate
    73.90183821270266,        !- Vertex 3 Ycoordinate
    3.975,                    !- Vertex 3 Zcoordinate
    41.47028392407272,        !- Vertex 4 Xcoordinate
    73.90183821270266,        !- Vertex 4 Ycoordinate
    5.025;                    !- Vertex 4 Zcoordinate

FENESTRATIONSURFACE:DETAILED,
    Block Poly_9_Transport Storey 1 Wall 0015 window,    !- Name
    Window,                   !- Surface Type
    HSCWZ_Public&Industrial_2015_Win,    !- Construction Name
    Block Poly_9_Transport Storey 1 Wall 0015,    !- Building Surface Name
    ,                         !- Outside Boundary Condition Object
    autocalculate,            !- View Factor to Ground
    ,                         !- Frame and Divider Name
    1,                        !- Multiplier
    autocalculate,            !- Number of Vertices
    41.46068805131168,        !- Vertex 1 Xcoordinate
    73.90397152341599,        !- Vertex 1 Ycoordinate
    5.025,                    !- Vertex 1 Zcoordinate
    41.46068805131168,        !- Vertex 2 Xcoordinate
    73.90397152341599,        !- Vertex 2 Ycoordinate
    3.975,                    !- Vertex 2 Zcoordinate
    30.89385699869794,        !- Vertex 3 Xcoordinate
    74.05553392703017,        !- Vertex 3 Ycoordinate
    3.975,                    !- Vertex 3 Zcoordinate
    30.89385699869794,        !- Vertex 4 Xcoordinate
    74.05553392703017,        !- Vertex 4 Ycoordinate
    5.025;                    !- Vertex 4 Zcoordinate

FENESTRATIONSURFACE:DETAILED,
    Block Poly_9_Transport Storey 1 Wall 0016 window,    !- Name
    Window,                   !- Surface Type
    HSCWZ_Public&Industrial_2015_Win,    !- Construction Name
    Block Poly_9_Transport Storey 1 Wall 0016,    !- Building Surface Name
    ,                         !- Outside Boundary Condition Object
    autocalculate,            !- View Factor to Ground
    ,                         !- Frame and Divider Name
    1,                        !- Multiplier
    autocalculate,            !- Number of Vertices
    30.88803539014695,        !- Vertex 1 Xcoordinate
    74.0516815052731,         !- Vertex 1 Ycoordinate
    5.025,                    !- Vertex 1 Zcoordinate
    30.88803539014695,        !- Vertex 2 Xcoordinate
    74.0516815052731,         !- Vertex 2 Ycoordinate
    3.975,                    !- Vertex 2 Zcoordinate
    29.823292557878478,       !- Vertex 3 Xcoordinate
    66.20298043103982,        !- Vertex 3 Ycoordinate
    3.975,                    !- Vertex 3 Zcoordinate
    29.823292557878478,       !- Vertex 4 Xcoordinate
    66.20298043103982,        !- Vertex 4 Ycoordinate
    5.025;                    !- Vertex 4 Zcoordinate

FENESTRATIONSURFACE:DETAILED,
    Block Poly_9_Transport Storey 1 Wall 0017 window,    !- Name
    Window,                   !- Surface Type
    HSCWZ_Public&Industrial_2015_Win,    !- Construction Name
    Block Poly_9_Transport Storey 1 Wall 0017,    !- Building Surface Name
    ,                         !- Outside Boundary Condition Object
    autocalculate,            !- View Factor to Ground
    ,                         !- Frame and Divider Name
    1,                        !- Multiplier
    autocalculate,            !- Number of Vertices
    29.828475586061483,       !- Vertex 1 Xcoordinate
    66.19885929616285,        !- Vertex 1 Ycoordinate
    5.025,                    !- Vertex 1 Zcoordinate
    29.828475586061483,       !- Vertex 2 Xcoordinate
    66.19885929616285,        !- Vertex 2 Ycoordinate
    3.975,                    !- Vertex 2 Zcoordinate
    41.248908727972655,       !- Vertex 3 Xcoordinate
    65.81353288620593,        !- Vertex 3 Ycoordinate
    3.975,                    !- Vertex 3 Zcoordinate
    41.248908727972655,       !- Vertex 4 Xcoordinate
    65.81353288620593,        !- Vertex 4 Ycoordinate
    5.025;                    !- Vertex 4 Zcoordinate

FENESTRATIONSURFACE:DETAILED,
    Block Poly_9_Transport Storey 1 Wall 0018 window,    !- Name
    Window,                   !- Surface Type
    HSCWZ_Public&Industrial_2015_Win,    !- Construction Name
    Block Poly_9_Transport Storey 1 Wall 0018,    !- Building Surface Name
    ,                         !- Outside Boundary Condition Object
    autocalculate,            !- View Factor to Ground
    ,                         !- Frame and Divider Name
    1,                        !- Multiplier
    autocalculate,            !- Number of Vertices
    41.256609895105825,       !- Vertex 1 Xcoordinate
    65.81220284637902,        !- Vertex 1 Ycoordinate
    5.025,                    !- Vertex 1 Zcoordinate
    41.256609895105825,       !- Vertex 2 Xcoordinate
    65.81220284637902,        !- Vertex 2 Ycoordinate
    3.975,                    !- Vertex 2 Zcoordinate
    45.22310868527053,        !- Vertex 3 Xcoordinate
    63.54010968214925,        !- Vertex 3 Ycoordinate
    3.975,                    !- Vertex 3 Zcoordinate
    45.22310868527053,        !- Vertex 4 Xcoordinate
    63.54010968214925,        !- Vertex 4 Ycoordinate
    5.025;                    !- Vertex 4 Zcoordinate

FENESTRATIONSURFACE:DETAILED,
    Block Poly_9_Transport Storey 1 Wall 0019 window,    !- Name
    Window,                   !- Surface Type
    HSCWZ_Public&Industrial_2015_Win,    !- Construction Name
    Block Poly_9_Transport Storey 1 Wall 0019,    !- Building Surface Name
    ,                         !- Outside Boundary Condition Object
    autocalculate,            !- View Factor to Ground
    ,                         !- Frame and Divider Name
    1,                        !- Multiplier
    autocalculate,            !- Number of Vertices
    45.22697035016591,        !- Vertex 1 Xcoordinate
    63.53689447196294,        !- Vertex 1 Ycoordinate
    5.025,                    !- Vertex 1 Zcoordinate
    45.22697035016591,        !- Vertex 2 Xcoordinate
    63.53689447196294,        !- Vertex 2 Ycoordinate
    3.975,                    !- Vertex 2 Zcoordinate
    48.9760780209619,         !- Vertex 3 Xcoordinate
    59.38499768393021,        !- Vertex 3 Ycoordinate
    3.975,                    !- Vertex 3 Zcoordinate
    48.9760780209619,         !- Vertex 4 Xcoordinate
    59.38499768393021,        !- Vertex 4 Ycoordinate
    5.025;                    !- Vertex 4 Zcoordinate

FENESTRATIONSURFACE:DETAILED,
    Block Poly_9_Transport Storey 1 Wall 0020 window,    !- Name
    Window,                   !- Surface Type
    HSCWZ_Public&Industrial_2015_Win,    !- Construction Name
    Block Poly_9_Transport Storey 1 Wall 0020,    !- Building Surface Name
    ,                         !- Outside Boundary Condition Object
    autocalculate,            !- View Factor to Ground
    ,                         !- Frame and Divider Name
    1,                        !- Multiplier
    autocalculate,            !- Number of Vertices
    48.97930598139181,        !- Vertex 1 Xcoordinate
    59.38079372423655,        !- Vertex 1 Ycoordinate
    5.025,                    !- Vertex 1 Zcoordinate
    48.97930598139181,        !- Vertex 2 Xcoordinate
    59.38079372423655,        !- Vertex 2 Ycoordinate
    3.975,                    !- Vertex 2 Zcoordinate
    51.67966324955807,        !- Vertex 3 Xcoordinate
    55.133179044323505,       !- Vertex 3 Ycoordinate
    3.975,                    !- Vertex 3 Zcoordinate
    51.67966324955807,        !- Vertex 4 Xcoordinate
    55.133179044323505,       !- Vertex 4 Ycoordinate
    5.025;                    !- Vertex 4 Zcoordinate

FENESTRATIONSURFACE:DETAILED,
    Block Poly_9_Transport Storey 1 Wall 0021 window,    !- Name
    Window,                   !- Surface Type
    HSCWZ_Public&Industrial_2015_Win,    !- Construction Name
    Block Poly_9_Transport Storey 1 Wall 0021,    !- Building Surface Name
    ,                         !- Outside Boundary Condition Object
    autocalculate,            !- View Factor to Ground
    ,                         !- Frame and Divider Name
    1,                        !- Multiplier
    autocalculate,            !- Number of Vertices
    51.681835050304656,       !- Vertex 1 Xcoordinate
    55.12843587751407,        !- Vertex 1 Ycoordinate
    5.025,                    !- Vertex 1 Zcoordinate
    51.681835050304656,       !- Vertex 2 Xcoordinate
    55.12843587751407,        !- Vertex 2 Ycoordinate
    3.975,                    !- Vertex 2 Zcoordinate
    53.32073567381012,        !- Vertex 3 Xcoordinate
    49.89920327217412,        !- Vertex 3 Ycoordinate
    3.975,                    !- Vertex 3 Zcoordinate
    53.32073567381012,        !- Vertex 4 Xcoordinate
    49.89920327217412,        !- Vertex 4 Ycoordinate
    5.025;                    !- Vertex 4 Zcoordinate

FENESTRATIONSURFACE:DETAILED,
    Block Poly_9_Transport Storey 1 Wall 0022 window,    !- Name
    Window,                   !- Surface Type
    HSCWZ_Public&Industrial_2015_Win,    !- Construction Name
    Block Poly_9_Transport Storey 1 Wall 0022,    !- Building Surface Name
    ,                         !- Outside Boundary Condition Object
    autocalculate,            !- View Factor to Ground
    ,                         !- Frame and Divider Name
    1,                        !- Multiplier
    autocalculate,            !- Number of Vertices
    53.30438114667213,        !- Vertex 1 Xcoordinate
    49.89860631557136,        !- Vertex 1 Ycoordinate
    5.025,                    !- Vertex 1 Zcoordinate
    53.30438114667213,        !- Vertex 2 Xcoordinate
    49.89860631557136,        !- Vertex 2 Ycoordinate
    3.975,                    !- Vertex 2 Zcoordinate
    18.989135301444737,       !- Vertex 3 Xcoordinate
    53.935119628590066,       !- Vertex 3 Ycoordinate
    3.975,                    !- Vertex 3 Zcoordinate
    18.989135301444737,       !- Vertex 4 Xcoordinate
    53.935119628590066,       !- Vertex 4 Ycoordinate
    5.025;                    !- Vertex 4 Zcoordinate

FENESTRATIONSURFACE:DETAILED,
    Block Poly_9_Transport Storey 1 Wall 0023 window,    !- Name
    Window,                   !- Surface Type
    HSCWZ_Public&Industrial_2015_Win,    !- Construction Name
    Block Poly_9_Transport Storey 1 Wall 0023,    !- Building Surface Name
    ,                         !- Outside Boundary Condition Object
    autocalculate,            !- View Factor to Ground
    ,                         !- Frame and Divider Name
    1,                        !- Multiplier
    autocalculate,            !- Number of Vertices
    18.97309054998646,        !- Vertex 1 Xcoordinate
    53.93950742328493,        !- Vertex 1 Ycoordinate
    5.025,                    !- Vertex 1 Zcoordinate
    18.97309054998646,        !- Vertex 2 Xcoordinate
    53.93950742328493,        !- Vertex 2 Ycoordinate
    3.975,                    !- Vertex 2 Zcoordinate
    21.230922981575482,       !- Vertex 3 Xcoordinate
    58.669807910603005,       !- Vertex 3 Ycoordinate
    3.975,                    !- Vertex 3 Zcoordinate
    21.230922981575482,       !- Vertex 4 Xcoordinate
    58.669807910603005,       !- Vertex 4 Ycoordinate
    5.025;                    !- Vertex 4 Zcoordinate

FENESTRATIONSURFACE:DETAILED,
    Block Poly_9_Transport Storey 1 Wall 0024 window,    !- Name
    Window,                   !- Surface Type
    HSCWZ_Public&Industrial_2015_Win,    !- Construction Name
    Block Poly_9_Transport Storey 1 Wall 0024,    !- Building Surface Name
    ,                         !- Outside Boundary Condition Object
    autocalculate,            !- View Factor to Ground
    ,                         !- Frame and Divider Name
    1,                        !- Multiplier
    autocalculate,            !- Number of Vertices
    21.23476731738198,        !- Vertex 1 Xcoordinate
    58.675351754558505,       !- Vertex 1 Ycoordinate
    5.025,                    !- Vertex 1 Zcoordinate
    21.23476731738198,        !- Vertex 2 Xcoordinate
    58.675351754558505,       !- Vertex 2 Ycoordinate
    3.975,                    !- Vertex 2 Zcoordinate
    26.657917827175638,       !- Vertex 3 Xcoordinate
    65.02165149032953,        !- Vertex 3 Ycoordinate
    3.975,                    !- Vertex 3 Zcoordinate
    26.657917827175638,       !- Vertex 4 Xcoordinate
    65.02165149032953,        !- Vertex 4 Ycoordinate
    5.025;                    !- Vertex 4 Zcoordinate

FENESTRATIONSURFACE:DETAILED,
    Block Poly_9_Transport Storey 1 Wall 0025 window,    !- Name
    Window,                   !- Surface Type
    HSCWZ_Public&Industrial_2015_Win,    !- Construction Name
    Block Poly_9_Transport Storey 1 Wall 0025,    !- Building Surface Name
    ,                         !- Outside Boundary Condition Object
    autocalculate,            !- View Factor to Ground
    ,                         !- Frame and Divider Name
    1,                        !- Multiplier
    autocalculate,            !- Number of Vertices
    26.660113630400243,       !- Vertex 1 Xcoordinate
    65.0285494343834,         !- Vertex 1 Ycoordinate
    5.025,                    !- Vertex 1 Zcoordinate
    26.660113630400243,       !- Vertex 2 Xcoordinate
    65.0285494343834,         !- Vertex 2 Ycoordinate
    3.975,                    !- Vertex 2 Zcoordinate
    25.624177963365128,       !- Vertex 3 Xcoordinate
    72.46434191824031,        !- Vertex 3 Ycoordinate
    3.975,                    !- Vertex 3 Zcoordinate
    25.624177963365128,       !- Vertex 4 Xcoordinate
    72.46434191824031,        !- Vertex 4 Ycoordinate
    5.025;                    !- Vertex 4 Zcoordinate

PEOPLE,
    People_Block Poly_9_Transport Storey 0,    !- Name
    Block Poly_9_Transport Storey 0,    !- Zone or ZoneList or Space or SpaceList Name
    People_Schedule,          !- Number of People Schedule Name
    Area/Person,              !- Number of People Calculation Method
    ,                         !- Number of People
    ,                         !- People per Floor Area
    0.67,                     !- Floor Area per Person
    0.3,                      !- Fraction Radiant
    autocalculate,            !- Sensible Heat Fraction
    CN_GenericActivityLevel,    !- Activity Level Schedule Name
    3.82e-08,                 !- Carbon Dioxide Generation Rate
    No,                       !- Enable ASHRAE 55 Comfort Warnings
    ZoneAveraged,             !- Mean Radiant Temperature Calculation Type
    ,                         !- Surface NameAngle Factor List Name
    ,                         !- Work Efficiency Schedule Name
    ClothingInsulationSchedule,    !- Clothing Insulation Calculation Method
    ,                         !- Clothing Insulation Calculation Method Schedule Name
    ,                         !- Clothing Insulation Schedule Name
    ,                         !- Air Velocity Schedule Name
    ,                         !- Thermal Comfort Model 1 Type
    ,                         !- Thermal Comfort Model 2 Type
    ,                         !- Thermal Comfort Model 3 Type
    ,                         !- Thermal Comfort Model 4 Type
    ,                         !- Thermal Comfort Model 5 Type
    ,                         !- Thermal Comfort Model 6 Type
    ,                         !- Thermal Comfort Model 7 Type
    ,                         !- Ankle Level Air Velocity Schedule Name
    15.56,                    !- Cold Stress Temperature Threshold
    30;                       !- Heat Stress Temperature Threshold

PEOPLE,
    People_Block Poly_9_Transport Storey 1,    !- Name
    Block Poly_9_Transport Storey 1,    !- Zone or ZoneList or Space or SpaceList Name
    People_Schedule,          !- Number of People Schedule Name
    Area/Person,              !- Number of People Calculation Method
    ,                         !- Number of People
    ,                         !- People per Floor Area
    0.67,                     !- Floor Area per Person
    0.3,                      !- Fraction Radiant
    autocalculate,            !- Sensible Heat Fraction
    CN_GenericActivityLevel,    !- Activity Level Schedule Name
    3.82e-08,                 !- Carbon Dioxide Generation Rate
    No,                       !- Enable ASHRAE 55 Comfort Warnings
    ZoneAveraged,             !- Mean Radiant Temperature Calculation Type
    ,                         !- Surface NameAngle Factor List Name
    ,                         !- Work Efficiency Schedule Name
    ClothingInsulationSchedule,    !- Clothing Insulation Calculation Method
    ,                         !- Clothing Insulation Calculation Method Schedule Name
    ,                         !- Clothing Insulation Schedule Name
    ,                         !- Air Velocity Schedule Name
    ,                         !- Thermal Comfort Model 1 Type
    ,                         !- Thermal Comfort Model 2 Type
    ,                         !- Thermal Comfort Model 3 Type
    ,                         !- Thermal Comfort Model 4 Type
    ,                         !- Thermal Comfort Model 5 Type
    ,                         !- Thermal Comfort Model 6 Type
    ,                         !- Thermal Comfort Model 7 Type
    ,                         !- Ankle Level Air Velocity Schedule Name
    15.56,                    !- Cold Stress Temperature Threshold
    30;                       !- Heat Stress Temperature Threshold

LIGHTS,
    Lights_Block Poly_9_Transport Storey 0,    !- Name
    Block Poly_9_Transport Storey 0,    !- Zone or ZoneList or Space or SpaceList Name
    Lights_Schedule,          !- Schedule Name
    Watts/Area,               !- Design Level Calculation Method
    ,                         !- Lighting Level
    7,                        !- Watts per Zone Floor Area
    ,                         !- Watts per Person
    0,                        !- Return Air Fraction
    0,                        !- Fraction Radiant
    0,                        !- Fraction Visible
    1,                        !- Fraction Replaceable
    General,                  !- EndUse Subcategory
    No,                       !- Return Air Fraction Calculated from Plenum Temperature
    0,                        !- Return Air Fraction Function of Plenum Temperature Coefficient 1
    0;                        !- Return Air Fraction Function of Plenum Temperature Coefficient 2

LIGHTS,
    Lights_Block Poly_9_Transport Storey 1,    !- Name
    Block Poly_9_Transport Storey 1,    !- Zone or ZoneList or Space or SpaceList Name
    Lights_Schedule,          !- Schedule Name
    Watts/Area,               !- Design Level Calculation Method
    ,                         !- Lighting Level
    7,                        !- Watts per Zone Floor Area
    ,                         !- Watts per Person
    0,                        !- Return Air Fraction
    0,                        !- Fraction Radiant
    0,                        !- Fraction Visible
    1,                        !- Fraction Replaceable
    General,                  !- EndUse Subcategory
    No,                       !- Return Air Fraction Calculated from Plenum Temperature
    0,                        !- Return Air Fraction Function of Plenum Temperature Coefficient 1
    0;                        !- Return Air Fraction Function of Plenum Temperature Coefficient 2

ELECTRICEQUIPMENT,
    ElectricEquipment_Block Poly_9_Transport Storey 0,    !- Name
    Block Poly_9_Transport Storey 0,    !- Zone or ZoneList or Space or SpaceList Name
    ElectricEquipment_Schedule,    !- Schedule Name
    Watts/Area,               !- Design Level Calculation Method
    ,                         !- Design Level
    25,                       !- Watts per Zone Floor Area
    ,                         !- Watts per Person
    0,                        !- Fraction Latent
    0,                        !- Fraction Radiant
    0,                        !- Fraction Lost
    General;                  !- EndUse Subcategory

ELECTRICEQUIPMENT,
    ElectricEquipment_Block Poly_9_Transport Storey 1,    !- Name
    Block Poly_9_Transport Storey 1,    !- Zone or ZoneList or Space or SpaceList Name
    ElectricEquipment_Schedule,    !- Schedule Name
    Watts/Area,               !- Design Level Calculation Method
    ,                         !- Design Level
    25,                       !- Watts per Zone Floor Area
    ,                         !- Watts per Person
    0,                        !- Fraction Latent
    0,                        !- Fraction Radiant
    0,                        !- Fraction Lost
    General;                  !- EndUse Subcategory

ZONEINFILTRATION:DESIGNFLOWRATE,
    Infil 1,                  !- Name
    Block Poly_9_Transport Storey 0,    !- Zone or ZoneList or Space or SpaceList Name
    AirEx_ConditionedTime_Schedule,    !- Schedule Name
    AirChanges/Hour,          !- Design Flow Rate Calculation Method
    ,                         !- Design Flow Rate
    ,                         !- Flow Rate per Floor Area
    ,                         !- Flow Rate per Exterior Surface Area
    1,                        !- Air Changes per Hour
    1,                        !- Constant Term Coefficient
    0,                        !- Temperature Term Coefficient
    0,                        !- Velocity Term Coefficient
    0;                        !- Velocity Squared Term Coefficient

ZONEINFILTRATION:DESIGNFLOWRATE,
    Infil 2,                  !- Name
    Block Poly_9_Transport Storey 1,    !- Zone or ZoneList or Space or SpaceList Name
    AirEx_ConditionedTime_Schedule,    !- Schedule Name
    AirChanges/Hour,          !- Design Flow Rate Calculation Method
    ,                         !- Design Flow Rate
    ,                         !- Flow Rate per Floor Area
    ,                         !- Flow Rate per Exterior Surface Area
    1,                        !- Air Changes per Hour
    1,                        !- Constant Term Coefficient
    0,                        !- Temperature Term Coefficient
    0,                        !- Velocity Term Coefficient
    0;                        !- Velocity Squared Term Coefficient

HVACTEMPLATE:THERMOSTAT,
    HVACTemp,                 !- Name
    Heating_SP_Schedule,      !- Heating Setpoint Schedule Name
    ,                         !- Constant Heating Setpoint
    Cooling_SP_Schedule;      !- Cooling Setpoint Schedule Name

HVACTEMPLATE:ZONE:IDEALLOADSAIRSYSTEM,
    Block Poly_9_Transport Storey 0,    !- Zone Name
    HVACTemp,                 !- Template Thermostat Name
    HVAC_ConditionedTime_Schedule,    !- System Availability Schedule Name
    50,                       !- Maximum Heating Supply Air Temperature
    13,                       !- Minimum Cooling Supply Air Temperature
    0.0156,                   !- Maximum Heating Supply Air Humidity Ratio
    0.0077,                   !- Minimum Cooling Supply Air Humidity Ratio
    NoLimit,                  !- Heating Limit
    ,                         !- Maximum Heating Air Flow Rate
    ,                         !- Maximum Sensible Heating Capacity
    NoLimit,                  !- Cooling Limit
    ,                         !- Maximum Cooling Air Flow Rate
    ,                         !- Maximum Total Cooling Capacity
    Heating_Period_Schedule,    !- Heating Availability Schedule Name
    Cooling_Period_Schedule,    !- Cooling Availability Schedule Name
    ConstantSensibleHeatRatio,    !- Dehumidification Control Type
    0.7,                      !- Cooling Sensible Heat Ratio
    60,                       !- Dehumidification Setpoint
    None,                     !- Humidification Control Type
    30,                       !- Humidification Setpoint
    None,                     !- Outdoor Air Method
    0.00944,                  !- Outdoor Air Flow Rate per Person
    0,                        !- Outdoor Air Flow Rate per Zone Floor Area
    0,                        !- Outdoor Air Flow Rate per Zone
    ,                         !- Design Specification Outdoor Air Object Name
    None,                     !- Demand Controlled Ventilation Type
    NoEconomizer,             !- Outdoor Air Economizer Type
    None,                     !- Heat Recovery Type
    0.7,                      !- Sensible Heat Recovery Effectiveness
    0.65;                     !- Latent Heat Recovery Effectiveness

HVACTEMPLATE:ZONE:IDEALLOADSAIRSYSTEM,
    Block Poly_9_Transport Storey 1,    !- Zone Name
    HVACTemp,                 !- Template Thermostat Name
    HVAC_ConditionedTime_Schedule,    !- System Availability Schedule Name
    50,                       !- Maximum Heating Supply Air Temperature
    13,                       !- Minimum Cooling Supply Air Temperature
    0.0156,                   !- Maximum Heating Supply Air Humidity Ratio
    0.0077,                   !- Minimum Cooling Supply Air Humidity Ratio
    NoLimit,                  !- Heating Limit
    ,                         !- Maximum Heating Air Flow Rate
    ,                         !- Maximum Sensible Heating Capacity
    NoLimit,                  !- Cooling Limit
    ,                         !- Maximum Cooling Air Flow Rate
    ,                         !- Maximum Total Cooling Capacity
    Heating_Period_Schedule,    !- Heating Availability Schedule Name
    Cooling_Period_Schedule,    !- Cooling Availability Schedule Name
    ConstantSensibleHeatRatio,    !- Dehumidification Control Type
    0.7,                      !- Cooling Sensible Heat Ratio
    60,                       !- Dehumidification Setpoint
    None,                     !- Humidification Control Type
    30,                       !- Humidification Setpoint
    None,                     !- Outdoor Air Method
    0.00944,                  !- Outdoor Air Flow Rate per Person
    0,                        !- Outdoor Air Flow Rate per Zone Floor Area
    0,                        !- Outdoor Air Flow Rate per Zone
    ,                         !- Design Specification Outdoor Air Object Name
    None,                     !- Demand Controlled Ventilation Type
    NoEconomizer,             !- Outdoor Air Economizer Type
    None,                     !- Heat Recovery Type
    0.7,                      !- Sensible Heat Recovery Effectiveness
    0.65;                     !- Latent Heat Recovery Effectiveness

OUTPUT:VARIABLEDICTIONARY,
    regular,                  !- Key Field
    Unsorted;                 !- Sort Option

OUTPUT:CONSTRUCTIONS,
    Constructions,            !- Details Type 1
    Constructions;            !- Details Type 2

OUTPUT:TABLE:SUMMARYREPORTS,
    AllSummary;               !- Report 1 Name

OUTPUTCONTROL:TABLE:STYLE,
    Comma,                    !- Column Separator
    JtoKWH;                   !- Unit Conversion

OUTPUT:VARIABLE,
    *,                        !- Key Value
    Zone Ideal Loads Supply Air Total Heating Rate,    !- Variable Name
    Hourly;                   !- Reporting Frequency

OUTPUT:VARIABLE,
    *,                        !- Key Value
    Zone Ideal Loads Supply Air Total Cooling Rate,    !- Variable Name
    Hourly;                   !- Reporting Frequency

OUTPUT:VARIABLE,
    *,                        !- Key Value
    Zone Ideal Loads Zone Total Heating Rate,    !- Variable Name
    Hourly;                   !- Reporting Frequency

OUTPUT:VARIABLE,
    *,                        !- Key Value
    Zone Ideal Loads Zone Total Cooling Rate,    !- Variable Name
    Hourly;                   !- Reporting Frequency

OUTPUT:VARIABLE,
    *,                        !- Key Value
    Zone Air Temperature,     !- Variable Name
    Hourly;                   !- Reporting Frequency

OUTPUT:METER:METERFILEONLY,
    DistrictCooling:Facility,    !- Key Name
    Hourly;                   !- Reporting Frequency

OUTPUT:METER:METERFILEONLY,
    DistrictHeatingWater:Facility,    !- Key Name
    Hourly;                   !- Reporting Frequency

OUTPUT:METER:METERFILEONLY,
    Electricity:Facility,     !- Key Name
    Hourly;                   !- Reporting Frequency

OUTPUT:METER:METERFILEONLY,
    Electricity:Building,     !- Key Name
    Hourly;                   !- Reporting Frequency

OUTPUT:SQLITE,
    SimpleAndTabular,         !- Option Type
    UseOutputControlTableStyle;    !- Unit Conversion for Tabular Data