!- Windows Line endings 

VERSION,
    23.2.0;                   !- Version Identifier

SIMULATIONCONTROL,
    Yes,                      !- Do Zone Sizing Calculation
    Yes,                      !- Do System Sizing Calculation
    No,                       !- Do Plant Sizing Calculation
    No,                       !- Run Simulation for Sizing Periods
    Yes,                      !- Run Simulation for Weather File Run Periods
    No,                       !- Do HVAC Sizing Simulation for Sizing Periods
    1;                        !- Maximum Number of HVAC Sizing Simulation Passes

BUILDING,
    shang4hai3shi4_Administration_7_1_1995,    !- Name
    0,                        !- North Axis
    City,                     !- Terrain
    0.04,                     !- Loads Convergence Tolerance Value
    0.4,                      !- Temperature Convergence Tolerance Value
    FullExterior,             !- Solar Distribution
    25,                       !- Maximum Number of Warmup Days
    1;                        !- Minimum Number of Warmup Days

SHADOWCALCULATION,
    PolygonClipping,          !- Shading Calculation Method
    Periodic,                 !- Shading Calculation Update Frequency Method
    20,                       !- Shading Calculation Update Frequency
    15000,                    !- Maximum Figures in Shadow Overlap Calculations
    SutherlandHodgman,        !- Polygon Clipping Algorithm
    512,                      !- Pixel Counting Resolution
    SimpleSkyDiffuseModeling,    !- Sky Diffuse Modeling Algorithm
    No,                       !- Output External Shading Calculation Results
    No,                       !- Disable SelfShading Within Shading Zone Groups
    No;                       !- Disable SelfShading From Shading Zone Groups to Other Zones

HEATBALANCEALGORITHM,
    ConductionTransferFunction,    !- Algorithm
    200,                      !- Surface Temperature Upper Limit
    ,                         !- Minimum Surface Convection Heat Transfer Coefficient Value
    ;                         !- Maximum Surface Convection Heat Transfer Coefficient Value

TIMESTEP,
    1;                        !- Number of Timesteps per Hour

CONVERGENCELIMITS,
    1,                        !- Minimum System Timestep
    20,                       !- Maximum HVAC Iterations
    2,                        !- Minimum Plant Iterations
    8;                        !- Maximum Plant Iterations

RUNPERIOD,
    Run_Period_1,             !- Name
    1,                        !- Begin Month
    1,                        !- Begin Day of Month
    ,                         !- Begin Year
    12,                       !- End Month
    31,                       !- End Day of Month
    ,                         !- End Year
    ,                         !- Day of Week for Start Day
    Yes,                      !- Use Weather File Holidays and Special Days
    Yes,                      !- Use Weather File Daylight Saving Period
    No,                       !- Apply Weekend Holiday Rule
    Yes,                      !- Use Weather File Rain Indicators
    Yes,                      !- Use Weather File Snow Indicators
    ,                         !- Treat Weather as Actual
    ;                         !- First Hour Interpolation Starting Values

SCHEDULETYPELIMITS,
    Fraction,                 !- Name
    0,                        !- Lower Limit Value
    1,                        !- Upper Limit Value
    Continuous,               !- Numeric Type
    ;                         !- Unit Type

SCHEDULETYPELIMITS,
    Temperature,              !- Name
    ,                         !- Lower Limit Value
    ,                         !- Upper Limit Value
    Continuous,               !- Numeric Type
    Temperature;              !- Unit Type

SCHEDULETYPELIMITS,
    Any Number,               !- Name
    ,                         !- Lower Limit Value
    ,                         !- Upper Limit Value
    Continuous,               !- Numeric Type
    Dimensionless;            !- Unit Type

SCHEDULETYPELIMITS,
    On/Off,                   !- Name
    ,                         !- Lower Limit Value
    ,                         !- Upper Limit Value
    ,                         !- Numeric Type
    Dimensionless;            !- Unit Type

SCHEDULE:COMPACT,
    People_Schedule,          !- Name
    Fraction,                 !- Schedule Type Limits Name
    Through: 12/31,           !- Field 1
    For: Weekdays,            !- Field 2
    Until: 07:00,             !- Field 3
    0,                        !- Field 4
    Until: 08:00,             !- Field 5
    0.1,                      !- Field 6
    Until: 09:00,             !- Field 7
    0.5,                      !- Field 8
    Until: 12:00,             !- Field 9
    0.95,                     !- Field 10
    Until: 14:00,             !- Field 11
    0.8,                      !- Field 12
    Until: 18:00,             !- Field 13
    0.95,                     !- Field 14
    Until: 20:00,             !- Field 15
    0.3,                      !- Field 16
    Until: 24:00,             !- Field 17
    0,                        !- Field 18
    For: AllOtherDays,        !- Field 19
    Until: 24:00,             !- Field 20
    0;                        !- Field 21

SCHEDULE:COMPACT,
    Lights_Schedule,          !- Name
    Fraction,                 !- Schedule Type Limits Name
    Through: 12/31,           !- Field 1
    For: Weekdays,            !- Field 2
    Until: 07:00,             !- Field 3
    0,                        !- Field 4
    Until: 08:00,             !- Field 5
    0.1,                      !- Field 6
    Until: 09:00,             !- Field 7
    0.5,                      !- Field 8
    Until: 12:00,             !- Field 9
    0.95,                     !- Field 10
    Until: 14:00,             !- Field 11
    0.8,                      !- Field 12
    Until: 18:00,             !- Field 13
    0.95,                     !- Field 14
    Until: 20:00,             !- Field 15
    0.3,                      !- Field 16
    Until: 24:00,             !- Field 17
    0,                        !- Field 18
    For: AllOtherDays,        !- Field 19
    Until: 24:00,             !- Field 20
    0;                        !- Field 21

SCHEDULE:COMPACT,
    ElectricEquipment_Schedule,    !- Name
    Fraction,                 !- Schedule Type Limits Name
    Through: 12/31,           !- Field 1
    For: Weekdays,            !- Field 2
    Until: 07:00,             !- Field 3
    0,                        !- Field 4
    Until: 08:00,             !- Field 5
    0.1,                      !- Field 6
    Until: 09:00,             !- Field 7
    0.5,                      !- Field 8
    Until: 12:00,             !- Field 9
    0.95,                     !- Field 10
    Until: 14:00,             !- Field 11
    0.5,                      !- Field 12
    Until: 18:00,             !- Field 13
    0.95,                     !- Field 14
    Until: 20:00,             !- Field 15
    0.3,                      !- Field 16
    Until: 24:00,             !- Field 17
    0,                        !- Field 18
    For: AllOtherDays,        !- Field 19
    Until: 24:00,             !- Field 20
    0;                        !- Field 21

SCHEDULE:COMPACT,
    Heating_SP_Schedule,      !- Name
    Temperature,              !- Schedule Type Limits Name
    Through: 12/31,           !- Field 1
    For: Weekdays,            !- Field 2
    Until: 06:00,             !- Field 3
    5,                        !- Field 4
    Until: 07:00,             !- Field 5
    20,                       !- Field 6
    Until: 18:00,             !- Field 7
    20,                       !- Field 8
    Until: 19:00,             !- Field 9
    20,                       !- Field 10
    Until: 20:00,             !- Field 11
    20,                       !- Field 12
    Until: 21:00,             !- Field 13
    20,                       !- Field 14
    Until: 24:00,             !- Field 15
    5,                        !- Field 16
    For: AllOtherDays,        !- Field 17
    Until: 24:00,             !- Field 18
    5;                        !- Field 19

SCHEDULE:COMPACT,
    Cooling_SP_Schedule,      !- Name
    Temperature,              !- Schedule Type Limits Name
    Through: 12/31,           !- Field 1
    For: Weekdays,            !- Field 2
    Until: 08:00,             !- Field 3
    37,                       !- Field 4
    Until: 09:00,             !- Field 5
    28,                       !- Field 6
    Until: 17:00,             !- Field 7
    28,                       !- Field 8
    Until: 24:00,             !- Field 9
    37,                       !- Field 10
    For: AllOtherDays,        !- Field 11
    Until: 24:00,             !- Field 12
    37;                       !- Field 13

SCHEDULE:COMPACT,
    Heating_Period_Schedule,    !- Name
    On/Off,                   !- Schedule Type Limits Name
    Through: 04/15,           !- Field 1
    For: AllDays,             !- Field 2
    Until: 24:00,             !- Field 3
    1,                        !- Field 4
    Through: 11/01,           !- Field 5
    For: AllDays,             !- Field 6
    Until: 24:00,             !- Field 7
    0,                        !- Field 8
    Through: 12/31,           !- Field 9
    For: AllDays,             !- Field 10
    Until: 24:00,             !- Field 11
    1;                        !- Field 12

SCHEDULE:COMPACT,
    Cooling_Period_Schedule,    !- Name
    On/Off,                   !- Schedule Type Limits Name
    Through: 04/15,           !- Field 1
    For: AllDays,             !- Field 2
    Until: 24:00,             !- Field 3
    0,                        !- Field 4
    Through: 10/31,           !- Field 5
    For: AllDays,             !- Field 6
    Until: 24:00,             !- Field 7
    1,                        !- Field 8
    Through: 12/31,           !- Field 9
    For: AllDays,             !- Field 10
    Until: 24:00,             !- Field 11
    0;                        !- Field 12

SCHEDULE:COMPACT,
    HVAC_ConditionedTime_Schedule,    !- Name
    On/Off,                   !- Schedule Type Limits Name
    Through: 12/31,           !- Field 1
    For: Weekdays,            !- Field 2
    Until: 08:00,             !- Field 3
    0,                        !- Field 4
    Until: 18:00,             !- Field 5
    1,                        !- Field 6
    Until: 24:00,             !- Field 7
    0,                        !- Field 8
    For: AllOtherDays,        !- Field 9
    Until: 24:00,             !- Field 10
    0;                        !- Field 11

SCHEDULE:COMPACT,
    AirEx_ConditionedTime_Schedule,    !- Name
    Any Number,               !- Schedule Type Limits Name
    Through: 12/31,           !- Field 1
    For: Weekdays,            !- Field 2
    Until: 07:00,             !- Field 3
    0,                        !- Field 4
    Until: 20:00,             !- Field 5
    2,                        !- Field 6
    Until: 24:00,             !- Field 7
    0,                        !- Field 8
    For: AllOtherDays,        !- Field 9
    Until: 24:00,             !- Field 10
    0;                        !- Field 11

SCHEDULE:COMPACT,
    CN_GenericActivityLevel,    !- Name
    Any Number,               !- Schedule Type Limits Name
    Through: 12/31,           !- Field 1
    For: Weekdays,            !- Field 2
    Until: 08:00,             !- Field 3
    80,                       !- Field 4
    Until: 18:00,             !- Field 5
    120,                      !- Field 6
    Until: 24:00,             !- Field 7
    80,                       !- Field 8
    For: AllOtherDays,        !- Field 9
    Until: 24:00,             !- Field 10
    80;                       !- Field 11

MATERIAL,
    Concrete,                 !- Name
    MediumRough,              !- Roughness
    0.1,                      !- Thickness
    1.7,                      !- Conductivity
    2240,                     !- Density
    900,                      !- Specific Heat
    0.9,                      !- Thermal Absorptance
    0.7,                      !- Solar Absorptance
    0.7;                      !- Visible Absorptance

MATERIAL,
    Brick,                    !- Name
    MediumRough,              !- Roughness
    0.1,                      !- Thickness
    0.72,                     !- Conductivity
    1920,                     !- Density
    840,                      !- Specific Heat
    0.9,                      !- Thermal Absorptance
    0.7,                      !- Solar Absorptance
    0.7;                      !- Visible Absorptance

MATERIAL,
    Tile,                     !- Name
    Smooth,                   !- Roughness
    0.02,                     !- Thickness
    1.3,                      !- Conductivity
    2200,                     !- Density
    900,                      !- Specific Heat
    0.9,                      !- Thermal Absorptance
    0.7,                      !- Solar Absorptance
    0.7;                      !- Visible Absorptance

MATERIAL,
    Gypsum,                   !- Name
    Smooth,                   !- Roughness
    0.015,                    !- Thickness
    0.16,                     !- Conductivity
    800,                      !- Density
    1090,                     !- Specific Heat
    0.9,                      !- Thermal Absorptance
    0.7,                      !- Solar Absorptance
    0.7;                      !- Visible Absorptance

MATERIAL,
    AsphaltFelt,              !- Name
    Smooth,                   !- Roughness
    0.01,                     !- Thickness
    0.2,                      !- Conductivity
    960,                      !- Density
    1000,                     !- Specific Heat
    0.9,                      !- Thermal Absorptance
    0.7,                      !- Solar Absorptance
    0.7;                      !- Visible Absorptance

MATERIAL,
    Insulation 0.003,         !- Name
    Rough,                    !- Roughness
    0.003,                    !- Thickness
    0.04,                     !- Conductivity
    40,                       !- Density
    1500,                     !- Specific Heat
    0.9,                      !- Thermal Absorptance
    0.7,                      !- Solar Absorptance
    0.7;                      !- Visible Absorptance

MATERIAL,
    Insulation 0.004,         !- Name
    Rough,                    !- Roughness
    0.004,                    !- Thickness
    0.04,                     !- Conductivity
    40,                       !- Density
    1500,                     !- Specific Heat
    0.9,                      !- Thermal Absorptance
    0.7,                      !- Solar Absorptance
    0.7;                      !- Visible Absorptance

MATERIAL,
    Insulation 0.007,         !- Name
    Rough,                    !- Roughness
    0.007,                    !- Thickness
    0.04,                     !- Conductivity
    40,                       !- Density
    1500,                     !- Specific Heat
    0.9,                      !- Thermal Absorptance
    0.7,                      !- Solar Absorptance
    0.7;                      !- Visible Absorptance

MATERIAL,
    Insulation 0.011,         !- Name
    Rough,                    !- Roughness
    0.011,                    !- Thickness
    0.04,                     !- Conductivity
    40,                       !- Density
    1500,                     !- Specific Heat
    0.9,                      !- Thermal Absorptance
    0.7,                      !- Solar Absorptance
    0.7;                      !- Visible Absorptance

MATERIAL,
    Insulation 0.012,         !- Name
    Rough,                    !- Roughness
    0.012,                    !- Thickness
    0.04,                     !- Conductivity
    40,                       !- Density
    1500,                     !- Specific Heat
    0.9,                      !- Thermal Absorptance
    0.7,                      !- Solar Absorptance
    0.7;                      !- Visible Absorptance

MATERIAL,
    Insulation 0.013,         !- Name
    Rough,                    !- Roughness
    0.013,                    !- Thickness
    0.04,                     !- Conductivity
    40,                       !- Density
    1500,                     !- Specific Heat
    0.9,                      !- Thermal Absorptance
    0.7,                      !- Solar Absorptance
    0.7;                      !- Visible Absorptance

MATERIAL,
    Insulation 0.014,         !- Name
    Rough,                    !- Roughness
    0.014,                    !- Thickness
    0.04,                     !- Conductivity
    40,                       !- Density
    1500,                     !- Specific Heat
    0.9,                      !- Thermal Absorptance
    0.7,                      !- Solar Absorptance
    0.7;                      !- Visible Absorptance

MATERIAL,
    Insulation 0.016,         !- Name
    Rough,                    !- Roughness
    0.016,                    !- Thickness
    0.04,                     !- Conductivity
    40,                       !- Density
    1500,                     !- Specific Heat
    0.9,                      !- Thermal Absorptance
    0.7,                      !- Solar Absorptance
    0.7;                      !- Visible Absorptance

MATERIAL,
    Insulation 0.017,         !- Name
    Rough,                    !- Roughness
    0.017,                    !- Thickness
    0.04,                     !- Conductivity
    40,                       !- Density
    1500,                     !- Specific Heat
    0.9,                      !- Thermal Absorptance
    0.7,                      !- Solar Absorptance
    0.7;                      !- Visible Absorptance

MATERIAL,
    Insulation 0.018,         !- Name
    Rough,                    !- Roughness
    0.018,                    !- Thickness
    0.04,                     !- Conductivity
    40,                       !- Density
    1500,                     !- Specific Heat
    0.9,                      !- Thermal Absorptance
    0.7,                      !- Solar Absorptance
    0.7;                      !- Visible Absorptance

MATERIAL,
    Insulation 0.021,         !- Name
    Rough,                    !- Roughness
    0.021,                    !- Thickness
    0.04,                     !- Conductivity
    40,                       !- Density
    1500,                     !- Specific Heat
    0.9,                      !- Thermal Absorptance
    0.7,                      !- Solar Absorptance
    0.7;                      !- Visible Absorptance

MATERIAL,
    Insulation 0.022,         !- Name
    Rough,                    !- Roughness
    0.022,                    !- Thickness
    0.04,                     !- Conductivity
    40,                       !- Density
    1500,                     !- Specific Heat
    0.9,                      !- Thermal Absorptance
    0.7,                      !- Solar Absorptance
    0.7;                      !- Visible Absorptance

MATERIAL,
    Insulation 0.024,         !- Name
    Rough,                    !- Roughness
    0.024,                    !- Thickness
    0.04,                     !- Conductivity
    40,                       !- Density
    1500,                     !- Specific Heat
    0.9,                      !- Thermal Absorptance
    0.7,                      !- Solar Absorptance
    0.7;                      !- Visible Absorptance

MATERIAL,
    Insulation 0.027,         !- Name
    Rough,                    !- Roughness
    0.027,                    !- Thickness
    0.04,                     !- Conductivity
    40,                       !- Density
    1500,                     !- Specific Heat
    0.9,                      !- Thermal Absorptance
    0.7,                      !- Solar Absorptance
    0.7;                      !- Visible Absorptance

MATERIAL,
    Insulation 0.028,         !- Name
    Rough,                    !- Roughness
    0.028,                    !- Thickness
    0.04,                     !- Conductivity
    40,                       !- Density
    1500,                     !- Specific Heat
    0.9,                      !- Thermal Absorptance
    0.7,                      !- Solar Absorptance
    0.7;                      !- Visible Absorptance

MATERIAL,
    Insulation 0.029,         !- Name
    Rough,                    !- Roughness
    0.029,                    !- Thickness
    0.04,                     !- Conductivity
    40,                       !- Density
    1500,                     !- Specific Heat
    0.9,                      !- Thermal Absorptance
    0.7,                      !- Solar Absorptance
    0.7;                      !- Visible Absorptance

MATERIAL,
    Insulation 0.032,         !- Name
    Rough,                    !- Roughness
    0.032,                    !- Thickness
    0.04,                     !- Conductivity
    40,                       !- Density
    1500,                     !- Specific Heat
    0.9,                      !- Thermal Absorptance
    0.7,                      !- Solar Absorptance
    0.7;                      !- Visible Absorptance

MATERIAL,
    Insulation 0.036,         !- Name
    Rough,                    !- Roughness
    0.036,                    !- Thickness
    0.04,                     !- Conductivity
    40,                       !- Density
    1500,                     !- Specific Heat
    0.9,                      !- Thermal Absorptance
    0.7,                      !- Solar Absorptance
    0.7;                      !- Visible Absorptance

MATERIAL,
    Insulation 0.038,         !- Name
    Rough,                    !- Roughness
    0.038,                    !- Thickness
    0.04,                     !- Conductivity
    40,                       !- Density
    1500,                     !- Specific Heat
    0.9,                      !- Thermal Absorptance
    0.7,                      !- Solar Absorptance
    0.7;                      !- Visible Absorptance

MATERIAL,
    Insulation 0.040,         !- Name
    Rough,                    !- Roughness
    0.04,                     !- Thickness
    0.04,                     !- Conductivity
    40,                       !- Density
    1500,                     !- Specific Heat
    0.9,                      !- Thermal Absorptance
    0.7,                      !- Solar Absorptance
    0.7;                      !- Visible Absorptance

MATERIAL,
    Insulation 0.043,         !- Name
    Rough,                    !- Roughness
    0.043,                    !- Thickness
    0.04,                     !- Conductivity
    40,                       !- Density
    1500,                     !- Specific Heat
    0.9,                      !- Thermal Absorptance
    0.7,                      !- Solar Absorptance
    0.7;                      !- Visible Absorptance

MATERIAL,
    Insulation 0.046,         !- Name
    Rough,                    !- Roughness
    0.046,                    !- Thickness
    0.04,                     !- Conductivity
    40,                       !- Density
    1500,                     !- Specific Heat
    0.9,                      !- Thermal Absorptance
    0.7,                      !- Solar Absorptance
    0.7;                      !- Visible Absorptance

MATERIAL,
    Insulation 0.048,         !- Name
    Rough,                    !- Roughness
    0.048,                    !- Thickness
    0.04,                     !- Conductivity
    40,                       !- Density
    1500,                     !- Specific Heat
    0.9,                      !- Thermal Absorptance
    0.7,                      !- Solar Absorptance
    0.7;                      !- Visible Absorptance

MATERIAL,
    Insulation 0.057,         !- Name
    Rough,                    !- Roughness
    0.057,                    !- Thickness
    0.04,                     !- Conductivity
    40,                       !- Density
    1500,                     !- Specific Heat
    0.9,                      !- Thermal Absorptance
    0.7,                      !- Solar Absorptance
    0.7;                      !- Visible Absorptance

MATERIAL,
    Insulation 0.069,         !- Name
    Rough,                    !- Roughness
    0.069,                    !- Thickness
    0.04,                     !- Conductivity
    40,                       !- Density
    1500,                     !- Specific Heat
    0.9,                      !- Thermal Absorptance
    0.7,                      !- Solar Absorptance
    0.7;                      !- Visible Absorptance

MATERIAL,
    Insulation 0.077,         !- Name
    Rough,                    !- Roughness
    0.077,                    !- Thickness
    0.04,                     !- Conductivity
    40,                       !- Density
    1500,                     !- Specific Heat
    0.9,                      !- Thermal Absorptance
    0.7,                      !- Solar Absorptance
    0.7;                      !- Visible Absorptance

MATERIAL,
    Insulation 0.095,         !- Name
    Rough,                    !- Roughness
    0.095,                    !- Thickness
    0.04,                     !- Conductivity
    40,                       !- Density
    1500,                     !- Specific Heat
    0.9,                      !- Thermal Absorptance
    0.7,                      !- Solar Absorptance
    0.7;                      !- Visible Absorptance

MATERIAL,
    Insulation 0.062,         !- Name
    Rough,                    !- Roughness
    0.062,                    !- Thickness
    0.04,                     !- Conductivity
    40,                       !- Density
    1500,                     !- Specific Heat
    0.9,                      !- Thermal Absorptance
    0.7,                      !- Solar Absorptance
    0.7;                      !- Visible Absorptance

MATERIAL,
    Insulation 0.11,          !- Name
    Rough,                    !- Roughness
    0.11,                     !- Thickness
    0.04,                     !- Conductivity
    40,                       !- Density
    1500,                     !- Specific Heat
    0.9,                      !- Thermal Absorptance
    0.7,                      !- Solar Absorptance
    0.7;                      !- Visible Absorptance

MATERIAL,
    Insulation 0.14,          !- Name
    Rough,                    !- Roughness
    0.14,                     !- Thickness
    0.04,                     !- Conductivity
    40,                       !- Density
    1500,                     !- Specific Heat
    0.9,                      !- Thermal Absorptance
    0.7,                      !- Solar Absorptance
    0.7;                      !- Visible Absorptance

MATERIAL,
    Insulation 0.025,         !- Name
    Rough,                    !- Roughness
    0.025,                    !- Thickness
    0.04,                     !- Conductivity
    40,                       !- Density
    1500,                     !- Specific Heat
    0.9,                      !- Thermal Absorptance
    0.7,                      !- Solar Absorptance
    0.7;                      !- Visible Absorptance

MATERIAL,
    Insulation 0.049,         !- Name
    Rough,                    !- Roughness
    0.049,                    !- Thickness
    0.04,                     !- Conductivity
    40,                       !- Density
    1500,                     !- Specific Heat
    0.9,                      !- Thermal Absorptance
    0.7,                      !- Solar Absorptance
    0.7;                      !- Visible Absorptance

MATERIAL,
    Insulation 0.081,         !- Name
    Rough,                    !- Roughness
    0.081,                    !- Thickness
    0.04,                     !- Conductivity
    40,                       !- Density
    1500,                     !- Specific Heat
    0.9,                      !- Thermal Absorptance
    0.7,                      !- Solar Absorptance
    0.7;                      !- Visible Absorptance

MATERIAL,
    Insulation 0.097,         !- Name
    Rough,                    !- Roughness
    0.097,                    !- Thickness
    0.04,                     !- Conductivity
    40,                       !- Density
    1500,                     !- Specific Heat
    0.9,                      !- Thermal Absorptance
    0.7,                      !- Solar Absorptance
    0.7;                      !- Visible Absorptance

MATERIAL,
    Insulation 0.01,          !- Name
    Rough,                    !- Roughness
    0.01,                     !- Thickness
    0.04,                     !- Conductivity
    40,                       !- Density
    1500,                     !- Specific Heat
    0.9,                      !- Thermal Absorptance
    0.7,                      !- Solar Absorptance
    0.7;                      !- Visible Absorptance

MATERIAL,
    Insulation 0.034,         !- Name
    Rough,                    !- Roughness
    0.034,                    !- Thickness
    0.04,                     !- Conductivity
    40,                       !- Density
    1500,                     !- Specific Heat
    0.9,                      !- Thermal Absorptance
    0.7,                      !- Solar Absorptance
    0.7;                      !- Visible Absorptance

MATERIAL,
    Insulation 0.033,         !- Name
    Rough,                    !- Roughness
    0.033,                    !- Thickness
    0.04,                     !- Conductivity
    40,                       !- Density
    1500,                     !- Specific Heat
    0.9,                      !- Thermal Absorptance
    0.7,                      !- Solar Absorptance
    0.7;                      !- Visible Absorptance

MATERIAL,
    Insulation 0.06,          !- Name
    Rough,                    !- Roughness
    0.06,                     !- Thickness
    0.04,                     !- Conductivity
    40,                       !- Density
    1500,                     !- Specific Heat
    0.9,                      !- Thermal Absorptance
    0.7,                      !- Solar Absorptance
    0.7;                      !- Visible Absorptance

MATERIAL,
    Insulation 0.073,         !- Name
    Rough,                    !- Roughness
    0.073,                    !- Thickness
    0.04,                     !- Conductivity
    40,                       !- Density
    1500,                     !- Specific Heat
    0.9,                      !- Thermal Absorptance
    0.7,                      !- Solar Absorptance
    0.7;                      !- Visible Absorptance

MATERIAL,
    Insulation 0.085,         !- Name
    Rough,                    !- Roughness
    0.085,                    !- Thickness
    0.04,                     !- Conductivity
    40,                       !- Density
    1500,                     !- Specific Heat
    0.9,                      !- Thermal Absorptance
    0.7,                      !- Solar Absorptance
    0.7;                      !- Visible Absorptance

MATERIAL,
    Insulation 0.072,         !- Name
    Rough,                    !- Roughness
    0.072,                    !- Thickness
    0.04,                     !- Conductivity
    40,                       !- Density
    1500,                     !- Specific Heat
    0.9,                      !- Thermal Absorptance
    0.7,                      !- Solar Absorptance
    0.7;                      !- Visible Absorptance

MATERIAL,
    Insulation 0.05,          !- Name
    Rough,                    !- Roughness
    0.05,                     !- Thickness
    0.04,                     !- Conductivity
    40,                       !- Density
    1500,                     !- Specific Heat
    0.9,                      !- Thermal Absorptance
    0.7,                      !- Solar Absorptance
    0.7;                      !- Visible Absorptance

MATERIAL,
    Insulation 0.053,         !- Name
    Rough,                    !- Roughness
    0.053,                    !- Thickness
    0.04,                     !- Conductivity
    40,                       !- Density
    1500,                     !- Specific Heat
    0.9,                      !- Thermal Absorptance
    0.7,                      !- Solar Absorptance
    0.7;                      !- Visible Absorptance

MATERIAL,
    Insulation 0.068,         !- Name
    Rough,                    !- Roughness
    0.068,                    !- Thickness
    0.04,                     !- Conductivity
    40,                       !- Density
    1500,                     !- Specific Heat
    0.9,                      !- Thermal Absorptance
    0.7,                      !- Solar Absorptance
    0.7;                      !- Visible Absorptance

MATERIAL,
    Insulation 0.042,         !- Name
    Rough,                    !- Roughness
    0.042,                    !- Thickness
    0.04,                     !- Conductivity
    40,                       !- Density
    1500,                     !- Specific Heat
    0.9,                      !- Thermal Absorptance
    0.7,                      !- Solar Absorptance
    0.7;                      !- Visible Absorptance

MATERIAL,
    Insulation 0.059,         !- Name
    Rough,                    !- Roughness
    0.059,                    !- Thickness
    0.04,                     !- Conductivity
    40,                       !- Density
    1500,                     !- Specific Heat
    0.9,                      !- Thermal Absorptance
    0.7,                      !- Solar Absorptance
    0.7;                      !- Visible Absorptance

MATERIAL,
    Insulation 0.0078,        !- Name
    Rough,                    !- Roughness
    0.008,                    !- Thickness
    0.04,                     !- Conductivity
    40,                       !- Density
    1500,                     !- Specific Heat
    0.9,                      !- Thermal Absorptance
    0.7,                      !- Solar Absorptance
    0.7;                      !- Visible Absorptance

MATERIAL,
    Insulation 0.096,         !- Name
    Rough,                    !- Roughness
    0.096,                    !- Thickness
    0.04,                     !- Conductivity
    40,                       !- Density
    1500,                     !- Specific Heat
    0.9,                      !- Thermal Absorptance
    0.7,                      !- Solar Absorptance
    0.7;                      !- Visible Absorptance

MATERIAL,
    Insulation 0.019,         !- Name
    Rough,                    !- Roughness
    0.019,                    !- Thickness
    0.04,                     !- Conductivity
    40,                       !- Density
    1500,                     !- Specific Heat
    0.9,                      !- Thermal Absorptance
    0.7,                      !- Solar Absorptance
    0.7;                      !- Visible Absorptance

MATERIAL,
    Insulation 0.0059,        !- Name
    Rough,                    !- Roughness
    0.006,                    !- Thickness
    0.04,                     !- Conductivity
    40,                       !- Density
    1500,                     !- Specific Heat
    0.9,                      !- Thermal Absorptance
    0.7,                      !- Solar Absorptance
    0.7;                      !- Visible Absorptance

MATERIAL,
    Insulation 0.04,          !- Name
    Rough,                    !- Roughness
    0.04,                     !- Thickness
    0.04,                     !- Conductivity
    40,                       !- Density
    1500,                     !- Specific Heat
    0.9,                      !- Thermal Absorptance
    0.7,                      !- Solar Absorptance
    0.7;                      !- Visible Absorptance

MATERIAL,
    Insulation 0.076,         !- Name
    Rough,                    !- Roughness
    0.076,                    !- Thickness
    0.04,                     !- Conductivity
    40,                       !- Density
    1500,                     !- Specific Heat
    0.9,                      !- Thermal Absorptance
    0.7,                      !- Solar Absorptance
    0.7;                      !- Visible Absorptance

MATERIAL,
    Insulation 0.0081,        !- Name
    Rough,                    !- Roughness
    0.008,                    !- Thickness
    0.04,                     !- Conductivity
    40,                       !- Density
    1500,                     !- Specific Heat
    0.9,                      !- Thermal Absorptance
    0.7,                      !- Solar Absorptance
    0.7;                      !- Visible Absorptance

MATERIAL,
    Insulation 0.0044,        !- Name
    Rough,                    !- Roughness
    0.004,                    !- Thickness
    0.04,                     !- Conductivity
    40,                       !- Density
    1500,                     !- Specific Heat
    0.9,                      !- Thermal Absorptance
    0.7,                      !- Solar Absorptance
    0.7;                      !- Visible Absorptance

MATERIAL,
    Insulation 0.02,          !- Name
    Rough,                    !- Roughness
    0.02,                     !- Thickness
    0.04,                     !- Conductivity
    40,                       !- Density
    1500,                     !- Specific Heat
    0.9,                      !- Thermal Absorptance
    0.7,                      !- Solar Absorptance
    0.7;                      !- Visible Absorptance

MATERIAL,
    Insulation 0.0054,        !- Name
    Rough,                    !- Roughness
    0.005,                    !- Thickness
    0.04,                     !- Conductivity
    40,                       !- Density
    1500,                     !- Specific Heat
    0.9,                      !- Thermal Absorptance
    0.7,                      !- Solar Absorptance
    0.7;                      !- Visible Absorptance

MATERIAL,
    Insulation 0.0033,        !- Name
    Rough,                    !- Roughness
    0.003,                    !- Thickness
    0.04,                     !- Conductivity
    40,                       !- Density
    1500,                     !- Specific Heat
    0.9,                      !- Thermal Absorptance
    0.7,                      !- Solar Absorptance
    0.7;                      !- Visible Absorptance

WINDOWMATERIAL:SIMPLEGLAZINGSYSTEM,
    SCZ1_Public&Industrial_1980_Win_material,    !- Name
    3.26,                     !- UFactor
    0.7;                      !- Solar Heat Gain Coefficient

WINDOWMATERIAL:SIMPLEGLAZINGSYSTEM,
    SCZ1_Public&Industrial_1995_Win_material,    !- Name
    2.5,                      !- UFactor
    0.5;                      !- Solar Heat Gain Coefficient

WINDOWMATERIAL:SIMPLEGLAZINGSYSTEM,
    SCZ1_Public&Industrial_2005_Win_material,    !- Name
    2.5,                      !- UFactor
    0.4;                      !- Solar Heat Gain Coefficient

WINDOWMATERIAL:SIMPLEGLAZINGSYSTEM,
    SCZ1_Public&Industrial_2015_Win_material,    !- Name
    2.2,                      !- UFactor
    0.4;                      !- Solar Heat Gain Coefficient

WINDOWMATERIAL:SIMPLEGLAZINGSYSTEM,
    SCZ2_Public&Industrial_1980_Win_material,    !- Name
    4.5,                      !- UFactor
    0.7;                      !- Solar Heat Gain Coefficient

WINDOWMATERIAL:SIMPLEGLAZINGSYSTEM,
    SCZ2_Public&Industrial_1995_Win_material,    !- Name
    3.5,                      !- UFactor
    0.5;                      !- Solar Heat Gain Coefficient

WINDOWMATERIAL:SIMPLEGLAZINGSYSTEM,
    SCZ2_Public&Industrial_2005_Win_material,    !- Name
    2.6,                      !- UFactor
    0.5;                      !- Solar Heat Gain Coefficient

WINDOWMATERIAL:SIMPLEGLAZINGSYSTEM,
    SCZ2_Public&Industrial_2015_Win_material,    !- Name
    2.3,                      !- UFactor
    0.5;                      !- Solar Heat Gain Coefficient

WINDOWMATERIAL:SIMPLEGLAZINGSYSTEM,
    CZ_Public&Industrial_1980_Win_material,    !- Name
    6.1,                      !- UFactor
    0.75;                     !- Solar Heat Gain Coefficient

WINDOWMATERIAL:SIMPLEGLAZINGSYSTEM,
    CZ_Public&Industrial_1995_Win_material,    !- Name
    4.5,                      !- UFactor
    0.6025;                   !- Solar Heat Gain Coefficient

WINDOWMATERIAL:SIMPLEGLAZINGSYSTEM,
    CZ_Public&Industrial_2005_Win_material,    !- Name
    3.175,                    !- UFactor
    0.485;                    !- Solar Heat Gain Coefficient

WINDOWMATERIAL:SIMPLEGLAZINGSYSTEM,
    CZ_Public&Industrial_2015_Win_material,    !- Name
    2.425,                    !- UFactor
    0.3825;                   !- Solar Heat Gain Coefficient

WINDOWMATERIAL:SIMPLEGLAZINGSYSTEM,
    HSCWZ_Public&Industrial_1980_Win_material,    !- Name
    6.1,                      !- UFactor
    0.75;                     !- Solar Heat Gain Coefficient

WINDOWMATERIAL:SIMPLEGLAZINGSYSTEM,
    HSCWZ_Public&Industrial_1995_Win_material,    !- Name
    4.5,                      !- UFactor
    0.6025;                   !- Solar Heat Gain Coefficient

WINDOWMATERIAL:SIMPLEGLAZINGSYSTEM,
    HSCWZ_Public&Industrial_2005_Win_material,    !- Name
    3.175,                    !- UFactor
    0.485;                    !- Solar Heat Gain Coefficient

WINDOWMATERIAL:SIMPLEGLAZINGSYSTEM,
    HSCWZ_Public&Industrial_2015_Win_material,    !- Name
    2.425,                    !- UFactor
    0.3825;                   !- Solar Heat Gain Coefficient

WINDOWMATERIAL:SIMPLEGLAZINGSYSTEM,
    HSWWZ_Public&Industrial_1980_Win_material,    !- Name
    6.1,                      !- UFactor
    0.75;                     !- Solar Heat Gain Coefficient

WINDOWMATERIAL:SIMPLEGLAZINGSYSTEM,
    HSWWZ_Public&Industrial_1995_Win_material,    !- Name
    4.5,                      !- UFactor
    0.6025;                   !- Solar Heat Gain Coefficient

WINDOWMATERIAL:SIMPLEGLAZINGSYSTEM,
    HSWWZ_Public&Industrial_2005_Win_material,    !- Name
    3.175,                    !- UFactor
    0.485;                    !- Solar Heat Gain Coefficient

WINDOWMATERIAL:SIMPLEGLAZINGSYSTEM,
    HSWWZ_Public&Industrial_2015_Win_material,    !- Name
    2.425,                    !- UFactor
    0.3825;                   !- Solar Heat Gain Coefficient

WINDOWMATERIAL:SIMPLEGLAZINGSYSTEM,
    TZ_Public&Industrial_1980_Win_material,    !- Name
    6.1,                      !- UFactor
    0.75;                     !- Solar Heat Gain Coefficient

WINDOWMATERIAL:SIMPLEGLAZINGSYSTEM,
    TZ_Public&Industrial_1995_Win_material,    !- Name
    4.5,                      !- UFactor
    0.6025;                   !- Solar Heat Gain Coefficient

WINDOWMATERIAL:SIMPLEGLAZINGSYSTEM,
    TZ_Public&Industrial_2005_Win_material,    !- Name
    3.175,                    !- UFactor
    0.485;                    !- Solar Heat Gain Coefficient

WINDOWMATERIAL:SIMPLEGLAZINGSYSTEM,
    TZ_Public&Industrial_2015_Win_material,    !- Name
    2.425,                    !- UFactor
    0.3825;                   !- Solar Heat Gain Coefficient

CONSTRUCTION,
    SCZ1_Public&Industrial_1980_FloorSlab,    !- Name
    Tile,                     !- Outside Layer
    Concrete,                 !- Layer 2
    Insulation 0.021,         !- Layer 3
    Concrete,                 !- Layer 4
    Tile;                     !- Layer 5

CONSTRUCTION,
    SCZ1_Public&Industrial_1995_FloorSlab,    !- Name
    Tile,                     !- Outside Layer
    Concrete,                 !- Layer 2
    Insulation 0.027,         !- Layer 3
    Concrete,                 !- Layer 4
    Tile;                     !- Layer 5

CONSTRUCTION,
    SCZ1_Public&Industrial_2005_FloorSlab,    !- Name
    Tile,                     !- Outside Layer
    Concrete,                 !- Layer 2
    Insulation 0.034,         !- Layer 3
    Concrete,                 !- Layer 4
    Tile;                     !- Layer 5

CONSTRUCTION,
    SCZ1_Public&Industrial_2015_FloorSlab,    !- Name
    Tile,                     !- Outside Layer
    Concrete,                 !- Layer 2
    Insulation 0.034,         !- Layer 3
    Concrete,                 !- Layer 4
    Tile;                     !- Layer 5

CONSTRUCTION,
    SCZ1_Public&Industrial_1980_FloorGround,    !- Name
    Tile,                     !- Outside Layer
    Concrete,                 !- Layer 2
    Gypsum,                   !- Layer 3
    Insulation 0.033;         !- Layer 4

CONSTRUCTION,
    SCZ1_Public&Industrial_1995_FloorGround,    !- Name
    Tile,                     !- Outside Layer
    Concrete,                 !- Layer 2
    Gypsum,                   !- Layer 3
    Insulation 0.06;          !- Layer 4

CONSTRUCTION,
    SCZ1_Public&Industrial_2005_FloorGround,    !- Name
    Tile,                     !- Outside Layer
    Concrete,                 !- Layer 2
    Gypsum,                   !- Layer 3
    Insulation 0.06;          !- Layer 4

CONSTRUCTION,
    SCZ1_Public&Industrial_2015_FloorGround,    !- Name
    Tile,                     !- Outside Layer
    Concrete,                 !- Layer 2
    Gypsum,                   !- Layer 3
    Insulation 0.073;         !- Layer 4

CONSTRUCTION,
    SCZ1_Public&Industrial_1980_Win,    !- Name
    SCZ1_Public&Industrial_1980_Win_material;    !- Outside Layer

CONSTRUCTION,
    SCZ1_Public&Industrial_1995_Win,    !- Name
    SCZ1_Public&Industrial_1995_Win_material;    !- Outside Layer

CONSTRUCTION,
    SCZ1_Public&Industrial_2005_Win,    !- Name
    SCZ1_Public&Industrial_2005_Win_material;    !- Outside Layer

CONSTRUCTION,
    SCZ1_Public&Industrial_2015_Win,    !- Name
    SCZ1_Public&Industrial_2015_Win_material;    !- Outside Layer

CONSTRUCTION,
    SCZ2_Public&Industrial_1980_FloorSlab,    !- Name
    Tile,                     !- Outside Layer
    Concrete,                 !- Layer 2
    Insulation 0.021,         !- Layer 3
    Concrete,                 !- Layer 4
    Tile;                     !- Layer 5

CONSTRUCTION,
    SCZ2_Public&Industrial_1995_FloorSlab,    !- Name
    Tile,                     !- Outside Layer
    Concrete,                 !- Layer 2
    Insulation 0.027,         !- Layer 3
    Concrete,                 !- Layer 4
    Tile;                     !- Layer 5

CONSTRUCTION,
    SCZ2_Public&Industrial_2005_FloorSlab,    !- Name
    Tile,                     !- Outside Layer
    Concrete,                 !- Layer 2
    Insulation 0.034,         !- Layer 3
    Concrete,                 !- Layer 4
    Tile;                     !- Layer 5

CONSTRUCTION,
    SCZ2_Public&Industrial_2015_FloorSlab,    !- Name
    Tile,                     !- Outside Layer
    Concrete,                 !- Layer 2
    Insulation 0.034,         !- Layer 3
    Concrete,                 !- Layer 4
    Tile;                     !- Layer 5

CONSTRUCTION,
    SCZ2_Public&Industrial_1980_FloorGround,    !- Name
    Tile,                     !- Outside Layer
    Concrete,                 !- Layer 2
    Gypsum,                   !- Layer 3
    Insulation 0.033;         !- Layer 4

CONSTRUCTION,
    SCZ2_Public&Industrial_1995_FloorGround,    !- Name
    Tile,                     !- Outside Layer
    Concrete,                 !- Layer 2
    Gypsum,                   !- Layer 3
    Insulation 0.043;         !- Layer 4

CONSTRUCTION,
    SCZ2_Public&Industrial_2005_FloorGround,    !- Name
    Tile,                     !- Outside Layer
    Concrete,                 !- Layer 2
    Gypsum,                   !- Layer 3
    Insulation 0.043;         !- Layer 4

CONSTRUCTION,
    SCZ2_Public&Industrial_2015_FloorGround,    !- Name
    Tile,                     !- Outside Layer
    Concrete,                 !- Layer 2
    Gypsum,                   !- Layer 3
    Insulation 0.05;          !- Layer 4

CONSTRUCTION,
    SCZ2_Public&Industrial_1980_Win,    !- Name
    SCZ2_Public&Industrial_1980_Win_material;    !- Outside Layer

CONSTRUCTION,
    SCZ2_Public&Industrial_1995_Win,    !- Name
    SCZ2_Public&Industrial_1995_Win_material;    !- Outside Layer

CONSTRUCTION,
    SCZ2_Public&Industrial_2005_Win,    !- Name
    SCZ2_Public&Industrial_2005_Win_material;    !- Outside Layer

CONSTRUCTION,
    SCZ2_Public&Industrial_2015_Win,    !- Name
    SCZ2_Public&Industrial_2015_Win_material;    !- Outside Layer

CONSTRUCTION,
    CZ_Public&Industrial_1980_FloorSlab,    !- Name
    Tile,                     !- Outside Layer
    Concrete,                 !- Layer 2
    Insulation 0.018,         !- Layer 3
    Concrete,                 !- Layer 4
    Tile;                     !- Layer 5

CONSTRUCTION,
    CZ_Public&Industrial_1995_FloorSlab,    !- Name
    Tile,                     !- Outside Layer
    Concrete,                 !- Layer 2
    Insulation 0.027,         !- Layer 3
    Concrete,                 !- Layer 4
    Tile;                     !- Layer 5

CONSTRUCTION,
    CZ_Public&Industrial_2005_FloorSlab,    !- Name
    Tile,                     !- Outside Layer
    Concrete,                 !- Layer 2
    Insulation 0.034,         !- Layer 3
    Concrete,                 !- Layer 4
    Tile;                     !- Layer 5

CONSTRUCTION,
    CZ_Public&Industrial_2015_FloorSlab,    !- Name
    Tile,                     !- Outside Layer
    Concrete,                 !- Layer 2
    Insulation 0.034,         !- Layer 3
    Concrete,                 !- Layer 4
    Tile;                     !- Layer 5

CONSTRUCTION,
    CZ_Public&Industrial_1980_FloorGround,    !- Name
    Tile,                     !- Outside Layer
    Concrete,                 !- Layer 2
    Gypsum,                   !- Layer 3
    Insulation 0.027;         !- Layer 4

CONSTRUCTION,
    CZ_Public&Industrial_1995_FloorGround,    !- Name
    Tile,                     !- Outside Layer
    Concrete,                 !- Layer 2
    Gypsum,                   !- Layer 3
    Insulation 0.05;          !- Layer 4

CONSTRUCTION,
    CZ_Public&Industrial_2005_FloorGround,    !- Name
    Tile,                     !- Outside Layer
    Concrete,                 !- Layer 2
    Gypsum,                   !- Layer 3
    Insulation 0.043;         !- Layer 4

CONSTRUCTION,
    CZ_Public&Industrial_2015_FloorGround,    !- Name
    Tile,                     !- Outside Layer
    Concrete,                 !- Layer 2
    Gypsum,                   !- Layer 3
    Insulation 0.05;          !- Layer 4

CONSTRUCTION,
    CZ_Public&Industrial_1980_Win,    !- Name
    CZ_Public&Industrial_1980_Win_material;    !- Outside Layer

CONSTRUCTION,
    CZ_Public&Industrial_1995_Win,    !- Name
    CZ_Public&Industrial_1995_Win_material;    !- Outside Layer

CONSTRUCTION,
    CZ_Public&Industrial_2005_Win,    !- Name
    CZ_Public&Industrial_2005_Win_material;    !- Outside Layer

CONSTRUCTION,
    CZ_Public&Industrial_2015_Win,    !- Name
    CZ_Public&Industrial_2015_Win_material;    !- Outside Layer

CONSTRUCTION,
    HSCWZ_Public&Industrial_1980_FloorSlab,    !- Name
    Tile,                     !- Outside Layer
    Concrete,                 !- Layer 2
    Insulation 0.014,         !- Layer 3
    Concrete,                 !- Layer 4
    Tile;                     !- Layer 5

CONSTRUCTION,
    HSCWZ_Public&Industrial_1995_FloorSlab,    !- Name
    Tile,                     !- Outside Layer
    Concrete,                 !- Layer 2
    Insulation 0.021,         !- Layer 3
    Concrete,                 !- Layer 4
    Tile;                     !- Layer 5

CONSTRUCTION,
    HSCWZ_Public&Industrial_2005_FloorSlab,    !- Name
    Tile,                     !- Outside Layer
    Concrete,                 !- Layer 2
    Insulation 0.021,         !- Layer 3
    Concrete,                 !- Layer 4
    Tile;                     !- Layer 5

CONSTRUCTION,
    HSCWZ_Public&Industrial_2015_FloorSlab,    !- Name
    Tile,                     !- Outside Layer
    Concrete,                 !- Layer 2
    Insulation 0.021,         !- Layer 3
    Concrete,                 !- Layer 4
    Tile;                     !- Layer 5

CONSTRUCTION,
    HSCWZ_Public&Industrial_1980_FloorGround,    !- Name
    Tile,                     !- Outside Layer
    Concrete,                 !- Layer 2
    Gypsum,                   !- Layer 3
    Insulation 0.024;         !- Layer 4

CONSTRUCTION,
    HSCWZ_Public&Industrial_1995_FloorGround,    !- Name
    Tile,                     !- Outside Layer
    Concrete,                 !- Layer 2
    Gypsum,                   !- Layer 3
    Insulation 0.043;         !- Layer 4

CONSTRUCTION,
    HSCWZ_Public&Industrial_2005_FloorGround,    !- Name
    Tile,                     !- Outside Layer
    Concrete,                 !- Layer 2
    Gypsum,                   !- Layer 3
    Insulation 0.043;         !- Layer 4

CONSTRUCTION,
    HSCWZ_Public&Industrial_2015_FloorGround,    !- Name
    Tile,                     !- Outside Layer
    Concrete,                 !- Layer 2
    Gypsum,                   !- Layer 3
    Insulation 0.043;         !- Layer 4

CONSTRUCTION,
    HSCWZ_Public&Industrial_1980_Win,    !- Name
    HSCWZ_Public&Industrial_1980_Win_material;    !- Outside Layer

CONSTRUCTION,
    HSCWZ_Public&Industrial_1995_Win,    !- Name
    HSCWZ_Public&Industrial_1995_Win_material;    !- Outside Layer

CONSTRUCTION,
    HSCWZ_Public&Industrial_2005_Win,    !- Name
    HSCWZ_Public&Industrial_2005_Win_material;    !- Outside Layer

CONSTRUCTION,
    HSCWZ_Public&Industrial_2015_Win,    !- Name
    HSCWZ_Public&Industrial_2015_Win_material;    !- Outside Layer

CONSTRUCTION,
    HSWWZ_Public&Industrial_1980_FloorSlab,    !- Name
    Tile,                     !- Outside Layer
    Concrete,                 !- Layer 2
    Insulation 0.01,          !- Layer 3
    Concrete,                 !- Layer 4
    Tile;                     !- Layer 5

CONSTRUCTION,
    HSWWZ_Public&Industrial_1995_FloorSlab,    !- Name
    Tile,                     !- Outside Layer
    Concrete,                 !- Layer 2
    Insulation 0.014,         !- Layer 3
    Concrete,                 !- Layer 4
    Tile;                     !- Layer 5

CONSTRUCTION,
    HSWWZ_Public&Industrial_2005_FloorSlab,    !- Name
    Tile,                     !- Outside Layer
    Concrete,                 !- Layer 2
    Insulation 0.014,         !- Layer 3
    Concrete,                 !- Layer 4
    Tile;                     !- Layer 5

CONSTRUCTION,
    HSWWZ_Public&Industrial_2015_FloorSlab,    !- Name
    Tile,                     !- Outside Layer
    Concrete,                 !- Layer 2
    Insulation 0.014,         !- Layer 3
    Concrete,                 !- Layer 4
    Tile;                     !- Layer 5

CONSTRUCTION,
    HSWWZ_Public&Industrial_1980_FloorGround,    !- Name
    Tile,                     !- Outside Layer
    Concrete,                 !- Layer 2
    Gypsum,                   !- Layer 3
    Insulation 0.02;          !- Layer 4

CONSTRUCTION,
    HSWWZ_Public&Industrial_1995_FloorGround,    !- Name
    Tile,                     !- Outside Layer
    Concrete,                 !- Layer 2
    Gypsum,                   !- Layer 3
    Insulation 0.033;         !- Layer 4

CONSTRUCTION,
    HSWWZ_Public&Industrial_2005_FloorGround,    !- Name
    Tile,                     !- Outside Layer
    Concrete,                 !- Layer 2
    Gypsum,                   !- Layer 3
    Insulation 0.033;         !- Layer 4

CONSTRUCTION,
    HSWWZ_Public&Industrial_2015_FloorGround,    !- Name
    Tile,                     !- Outside Layer
    Concrete,                 !- Layer 2
    Gypsum,                   !- Layer 3
    Insulation 0.033;         !- Layer 4

CONSTRUCTION,
    HSWWZ_Public&Industrial_1980_Win,    !- Name
    HSWWZ_Public&Industrial_1980_Win_material;    !- Outside Layer

CONSTRUCTION,
    HSWWZ_Public&Industrial_1995_Win,    !- Name
    HSWWZ_Public&Industrial_1995_Win_material;    !- Outside Layer

CONSTRUCTION,
    HSWWZ_Public&Industrial_2005_Win,    !- Name
    HSWWZ_Public&Industrial_2005_Win_material;    !- Outside Layer

CONSTRUCTION,
    HSWWZ_Public&Industrial_2015_Win,    !- Name
    HSWWZ_Public&Industrial_2015_Win_material;    !- Outside Layer

CONSTRUCTION,
    TZ_Public&Industrial_1980_FloorSlab,    !- Name
    Tile,                     !- Outside Layer
    Concrete,                 !- Layer 2
    Insulation 0.01,          !- Layer 3
    Concrete,                 !- Layer 4
    Tile;                     !- Layer 5

CONSTRUCTION,
    TZ_Public&Industrial_1995_FloorSlab,    !- Name
    Tile,                     !- Outside Layer
    Concrete,                 !- Layer 2
    Insulation 0.01,          !- Layer 3
    Concrete,                 !- Layer 4
    Tile;                     !- Layer 5

CONSTRUCTION,
    TZ_Public&Industrial_2005_FloorSlab,    !- Name
    Tile,                     !- Outside Layer
    Concrete,                 !- Layer 2
    Insulation 0.014,         !- Layer 3
    Concrete,                 !- Layer 4
    Tile;                     !- Layer 5

CONSTRUCTION,
    TZ_Public&Industrial_2015_FloorSlab,    !- Name
    Tile,                     !- Outside Layer
    Concrete,                 !- Layer 2
    Insulation 0.014,         !- Layer 3
    Concrete,                 !- Layer 4
    Tile;                     !- Layer 5

CONSTRUCTION,
    TZ_Public&Industrial_1980_FloorGround,    !- Name
    Tile,                     !- Outside Layer
    Concrete,                 !- Layer 2
    Gypsum,                   !- Layer 3
    Insulation 0.017;         !- Layer 4

CONSTRUCTION,
    TZ_Public&Industrial_1995_FloorGround,    !- Name
    Tile,                     !- Outside Layer
    Concrete,                 !- Layer 2
    Gypsum,                   !- Layer 3
    Insulation 0.027;         !- Layer 4

CONSTRUCTION,
    TZ_Public&Industrial_2005_FloorGround,    !- Name
    Tile,                     !- Outside Layer
    Concrete,                 !- Layer 2
    Gypsum,                   !- Layer 3
    Insulation 0.02;          !- Layer 4

CONSTRUCTION,
    TZ_Public&Industrial_2015_FloorGround,    !- Name
    Tile,                     !- Outside Layer
    Concrete,                 !- Layer 2
    Gypsum,                   !- Layer 3
    Insulation 0.02;          !- Layer 4

CONSTRUCTION,
    TZ_Public&Industrial_1980_Win,    !- Name
    TZ_Public&Industrial_1980_Win_material;    !- Outside Layer

CONSTRUCTION,
    TZ_Public&Industrial_1995_Win,    !- Name
    TZ_Public&Industrial_1995_Win_material;    !- Outside Layer

CONSTRUCTION,
    TZ_Public&Industrial_2005_Win,    !- Name
    TZ_Public&Industrial_2005_Win_material;    !- Outside Layer

CONSTRUCTION,
    TZ_Public&Industrial_2015_Win,    !- Name
    TZ_Public&Industrial_2015_Win_material;    !- Outside Layer

CONSTRUCTION,
    SCZ1_Public&Industrial_1980_Roof,    !- Name
    AsphaltFelt,              !- Outside Layer
    Concrete,                 !- Layer 2
    Insulation 0.048;         !- Layer 3

CONSTRUCTION,
    SCZ1_Public&Industrial_1995_Roof,    !- Name
    AsphaltFelt,              !- Outside Layer
    Concrete,                 !- Layer 2
    Insulation 0.048;         !- Layer 3

CONSTRUCTION,
    SCZ1_Public&Industrial_2005_Roof,    !- Name
    AsphaltFelt,              !- Outside Layer
    Concrete,                 !- Layer 2
    Insulation 0.048;         !- Layer 3

CONSTRUCTION,
    SCZ1_Public&Industrial_2015_Roof,    !- Name
    AsphaltFelt,              !- Outside Layer
    Concrete,                 !- Layer 2
    Insulation 0.048;         !- Layer 3

CONSTRUCTION,
    SCZ1_Public&Industrial_1980_ExtWall,    !- Name
    Brick,                    !- Outside Layer
    Concrete,                 !- Layer 2
    Insulation 0.022;         !- Layer 3

CONSTRUCTION,
    SCZ1_Public&Industrial_1995_ExtWall,    !- Name
    Brick,                    !- Outside Layer
    Concrete,                 !- Layer 2
    Insulation 0.022;         !- Layer 3

CONSTRUCTION,
    SCZ1_Public&Industrial_2005_ExtWall,    !- Name
    Brick,                    !- Outside Layer
    Concrete,                 !- Layer 2
    Insulation 0.022;         !- Layer 3

CONSTRUCTION,
    SCZ1_Public&Industrial_2015_ExtWall,    !- Name
    Brick,                    !- Outside Layer
    Concrete,                 !- Layer 2
    Insulation 0.022;         !- Layer 3

CONSTRUCTION,
    SCZ1_Public&Industrial_1980_IntWall,    !- Name
    Brick,                    !- Outside Layer
    Brick;                    !- Layer 2

CONSTRUCTION,
    SCZ1_Public&Industrial_1995_IntWall,    !- Name
    Brick,                    !- Outside Layer
    Brick;                    !- Layer 2

CONSTRUCTION,
    SCZ1_Public&Industrial_2005_IntWall,    !- Name
    Brick,                    !- Outside Layer
    Brick;                    !- Layer 2

CONSTRUCTION,
    SCZ1_Public&Industrial_2015_IntWall,    !- Name
    Brick,                    !- Outside Layer
    Brick;                    !- Layer 2

CONSTRUCTION,
    SCZ2_Public&Industrial_1980_Roof,    !- Name
    AsphaltFelt,              !- Outside Layer
    Concrete,                 !- Layer 2
    Insulation 0.036;         !- Layer 3

CONSTRUCTION,
    SCZ2_Public&Industrial_1995_Roof,    !- Name
    AsphaltFelt,              !- Outside Layer
    Concrete,                 !- Layer 2
    Insulation 0.036;         !- Layer 3

CONSTRUCTION,
    SCZ2_Public&Industrial_2005_Roof,    !- Name
    AsphaltFelt,              !- Outside Layer
    Concrete,                 !- Layer 2
    Insulation 0.036;         !- Layer 3

CONSTRUCTION,
    SCZ2_Public&Industrial_2015_Roof,    !- Name
    AsphaltFelt,              !- Outside Layer
    Concrete,                 !- Layer 2
    Insulation 0.036;         !- Layer 3

CONSTRUCTION,
    SCZ2_Public&Industrial_1980_ExtWall,    !- Name
    Brick,                    !- Outside Layer
    Concrete,                 !- Layer 2
    Insulation 0.021;         !- Layer 3

CONSTRUCTION,
    SCZ2_Public&Industrial_1995_ExtWall,    !- Name
    Brick,                    !- Outside Layer
    Concrete,                 !- Layer 2
    Insulation 0.021;         !- Layer 3

CONSTRUCTION,
    SCZ2_Public&Industrial_2005_ExtWall,    !- Name
    Brick,                    !- Outside Layer
    Concrete,                 !- Layer 2
    Insulation 0.021;         !- Layer 3

CONSTRUCTION,
    SCZ2_Public&Industrial_2015_ExtWall,    !- Name
    Brick,                    !- Outside Layer
    Concrete,                 !- Layer 2
    Insulation 0.021;         !- Layer 3

CONSTRUCTION,
    SCZ2_Public&Industrial_1980_IntWall,    !- Name
    Brick,                    !- Outside Layer
    Brick;                    !- Layer 2

CONSTRUCTION,
    SCZ2_Public&Industrial_1995_IntWall,    !- Name
    Brick,                    !- Outside Layer
    Brick;                    !- Layer 2

CONSTRUCTION,
    SCZ2_Public&Industrial_2005_IntWall,    !- Name
    Brick,                    !- Outside Layer
    Brick;                    !- Layer 2

CONSTRUCTION,
    SCZ2_Public&Industrial_2015_IntWall,    !- Name
    Brick,                    !- Outside Layer
    Brick;                    !- Layer 2

CONSTRUCTION,
    CZ_Public&Industrial_1980_Roof,    !- Name
    AsphaltFelt,              !- Outside Layer
    Concrete,                 !- Layer 2
    Insulation 0.027;         !- Layer 3

CONSTRUCTION,
    CZ_Public&Industrial_1995_Roof,    !- Name
    AsphaltFelt,              !- Outside Layer
    Concrete,                 !- Layer 2
    Insulation 0.027;         !- Layer 3

CONSTRUCTION,
    CZ_Public&Industrial_2005_Roof,    !- Name
    AsphaltFelt,              !- Outside Layer
    Concrete,                 !- Layer 2
    Insulation 0.027;         !- Layer 3

CONSTRUCTION,
    CZ_Public&Industrial_2015_Roof,    !- Name
    AsphaltFelt,              !- Outside Layer
    Concrete,                 !- Layer 2
    Insulation 0.027;         !- Layer 3

CONSTRUCTION,
    CZ_Public&Industrial_1980_ExtWall,    !- Name
    Brick,                    !- Outside Layer
    Concrete,                 !- Layer 2
    Insulation 0.014;         !- Layer 3

CONSTRUCTION,
    CZ_Public&Industrial_1995_ExtWall,    !- Name
    Brick,                    !- Outside Layer
    Concrete,                 !- Layer 2
    Insulation 0.014;         !- Layer 3

CONSTRUCTION,
    CZ_Public&Industrial_2005_ExtWall,    !- Name
    Brick,                    !- Outside Layer
    Concrete,                 !- Layer 2
    Insulation 0.014;         !- Layer 3

CONSTRUCTION,
    CZ_Public&Industrial_2015_ExtWall,    !- Name
    Brick,                    !- Outside Layer
    Concrete,                 !- Layer 2
    Insulation 0.014;         !- Layer 3

CONSTRUCTION,
    CZ_Public&Industrial_1980_IntWall,    !- Name
    Brick,                    !- Outside Layer
    Brick;                    !- Layer 2

CONSTRUCTION,
    CZ_Public&Industrial_1995_IntWall,    !- Name
    Brick,                    !- Outside Layer
    Brick;                    !- Layer 2

CONSTRUCTION,
    CZ_Public&Industrial_2005_IntWall,    !- Name
    Brick,                    !- Outside Layer
    Brick;                    !- Layer 2

CONSTRUCTION,
    CZ_Public&Industrial_2015_IntWall,    !- Name
    Brick,                    !- Outside Layer
    Brick;                    !- Layer 2

CONSTRUCTION,
    HSCWZ_Public&Industrial_1980_Roof,    !- Name
    AsphaltFelt,              !- Outside Layer
    Concrete,                 !- Layer 2
    Insulation 0.022;         !- Layer 3

CONSTRUCTION,
    HSCWZ_Public&Industrial_1995_Roof,    !- Name
    AsphaltFelt,              !- Outside Layer
    Concrete,                 !- Layer 2
    Insulation 0.022;         !- Layer 3

CONSTRUCTION,
    HSCWZ_Public&Industrial_2005_Roof,    !- Name
    AsphaltFelt,              !- Outside Layer
    Concrete,                 !- Layer 2
    Insulation 0.022;         !- Layer 3

CONSTRUCTION,
    HSCWZ_Public&Industrial_2015_Roof,    !- Name
    AsphaltFelt,              !- Outside Layer
    Concrete,                 !- Layer 2
    Insulation 0.022;         !- Layer 3

CONSTRUCTION,
    HSCWZ_Public&Industrial_1980_ExtWall,    !- Name
    Brick,                    !- Outside Layer
    Concrete,                 !- Layer 2
    Insulation 0.011;         !- Layer 3

CONSTRUCTION,
    HSCWZ_Public&Industrial_1995_ExtWall,    !- Name
    Brick,                    !- Outside Layer
    Concrete,                 !- Layer 2
    Insulation 0.011;         !- Layer 3

CONSTRUCTION,
    HSCWZ_Public&Industrial_2005_ExtWall,    !- Name
    Brick,                    !- Outside Layer
    Concrete,                 !- Layer 2
    Insulation 0.011;         !- Layer 3

CONSTRUCTION,
    HSCWZ_Public&Industrial_2015_ExtWall,    !- Name
    Brick,                    !- Outside Layer
    Concrete,                 !- Layer 2
    Insulation 0.011;         !- Layer 3

CONSTRUCTION,
    HSCWZ_Public&Industrial_1980_IntWall,    !- Name
    Brick,                    !- Outside Layer
    Brick;                    !- Layer 2

CONSTRUCTION,
    HSCWZ_Public&Industrial_1995_IntWall,    !- Name
    Brick,                    !- Outside Layer
    Brick;                    !- Layer 2

CONSTRUCTION,
    HSCWZ_Public&Industrial_2005_IntWall,    !- Name
    Brick,                    !- Outside Layer
    Brick;                    !- Layer 2

CONSTRUCTION,
    HSCWZ_Public&Industrial_2015_IntWall,    !- Name
    Brick,                    !- Outside Layer
    Brick;                    !- Layer 2

CONSTRUCTION,
    HSWWZ_Public&Industrial_1980_Roof,    !- Name
    AsphaltFelt,              !- Outside Layer
    Concrete,                 !- Layer 2
    Insulation 0.016;         !- Layer 3

CONSTRUCTION,
    HSWWZ_Public&Industrial_1995_Roof,    !- Name
    AsphaltFelt,              !- Outside Layer
    Concrete,                 !- Layer 2
    Insulation 0.016;         !- Layer 3

CONSTRUCTION,
    HSWWZ_Public&Industrial_2005_Roof,    !- Name
    AsphaltFelt,              !- Outside Layer
    Concrete,                 !- Layer 2
    Insulation 0.016;         !- Layer 3

CONSTRUCTION,
    HSWWZ_Public&Industrial_2015_Roof,    !- Name
    AsphaltFelt,              !- Outside Layer
    Concrete,                 !- Layer 2
    Insulation 0.016;         !- Layer 3

CONSTRUCTION,
    HSWWZ_Public&Industrial_1980_ExtWall,    !- Name
    Brick,                    !- Outside Layer
    Concrete,                 !- Layer 2
    Insulation 0.007;         !- Layer 3

CONSTRUCTION,
    HSWWZ_Public&Industrial_1995_ExtWall,    !- Name
    Brick,                    !- Outside Layer
    Concrete,                 !- Layer 2
    Insulation 0.007;         !- Layer 3

CONSTRUCTION,
    HSWWZ_Public&Industrial_2005_ExtWall,    !- Name
    Brick,                    !- Outside Layer
    Concrete,                 !- Layer 2
    Insulation 0.007;         !- Layer 3

CONSTRUCTION,
    HSWWZ_Public&Industrial_2015_ExtWall,    !- Name
    Brick,                    !- Outside Layer
    Concrete,                 !- Layer 2
    Insulation 0.007;         !- Layer 3

CONSTRUCTION,
    HSWWZ_Public&Industrial_1980_IntWall,    !- Name
    Brick,                    !- Outside Layer
    Brick;                    !- Layer 2

CONSTRUCTION,
    HSWWZ_Public&Industrial_1995_IntWall,    !- Name
    Brick,                    !- Outside Layer
    Brick;                    !- Layer 2

CONSTRUCTION,
    HSWWZ_Public&Industrial_2005_IntWall,    !- Name
    Brick,                    !- Outside Layer
    Brick;                    !- Layer 2

CONSTRUCTION,
    HSWWZ_Public&Industrial_2015_IntWall,    !- Name
    Brick,                    !- Outside Layer
    Brick;                    !- Layer 2

CONSTRUCTION,
    TZ_Public&Industrial_1980_Roof,    !- Name
    AsphaltFelt,              !- Outside Layer
    Concrete,                 !- Layer 2
    Insulation 0.012;         !- Layer 3

CONSTRUCTION,
    TZ_Public&Industrial_1995_Roof,    !- Name
    AsphaltFelt,              !- Outside Layer
    Concrete,                 !- Layer 2
    Insulation 0.012;         !- Layer 3

CONSTRUCTION,
    TZ_Public&Industrial_2005_Roof,    !- Name
    AsphaltFelt,              !- Outside Layer
    Concrete,                 !- Layer 2
    Insulation 0.012;         !- Layer 3

CONSTRUCTION,
    TZ_Public&Industrial_2015_Roof,    !- Name
    AsphaltFelt,              !- Outside Layer
    Concrete,                 !- Layer 2
    Insulation 0.012;         !- Layer 3

CONSTRUCTION,
    TZ_Public&Industrial_1980_ExtWall,    !- Name
    Brick,                    !- Outside Layer
    Concrete,                 !- Layer 2
    Insulation 0.004;         !- Layer 3

CONSTRUCTION,
    TZ_Public&Industrial_1995_ExtWall,    !- Name
    Brick,                    !- Outside Layer
    Concrete,                 !- Layer 2
    Insulation 0.004;         !- Layer 3

CONSTRUCTION,
    TZ_Public&Industrial_2005_ExtWall,    !- Name
    Brick,                    !- Outside Layer
    Concrete,                 !- Layer 2
    Insulation 0.004;         !- Layer 3

CONSTRUCTION,
    TZ_Public&Industrial_2015_ExtWall,    !- Name
    Brick,                    !- Outside Layer
    Concrete,                 !- Layer 2
    Insulation 0.004;         !- Layer 3

CONSTRUCTION,
    TZ_Public&Industrial_1980_IntWall,    !- Name
    Brick,                    !- Outside Layer
    Brick;                    !- Layer 2

CONSTRUCTION,
    TZ_Public&Industrial_1995_IntWall,    !- Name
    Brick,                    !- Outside Layer
    Brick;                    !- Layer 2

CONSTRUCTION,
    TZ_Public&Industrial_2005_IntWall,    !- Name
    Brick,                    !- Outside Layer
    Brick;                    !- Layer 2

CONSTRUCTION,
    TZ_Public&Industrial_2015_IntWall,    !- Name
    Brick,                    !- Outside Layer
    Brick;                    !- Layer 2

GLOBALGEOMETRYRULES,
    UpperRightCorner,         !- Starting Vertex Position
    Counterclockwise,         !- Vertex Entry Direction
    Relative,                 !- Coordinate System
    Relative,                 !- Daylighting Reference Point Coordinate System
    Relative;                 !- Rectangular Surface Coordinate System

ZONE,
    Block Poly_57_Administration Storey 0,    !- Name
    0,                        !- Direction of Relative North
    0,                        !- X Origin
    0,                        !- Y Origin
    0,                        !- Z Origin
    1,                        !- Type
    1,                        !- Multiplier
    autocalculate,            !- Ceiling Height
    autocalculate,            !- Volume
    autocalculate,            !- Floor Area
    ,                         !- Zone Inside Convection Algorithm
    ,                         !- Zone Outside Convection Algorithm
    Yes;                      !- Part of Total Floor Area

ZONE,
    Block Poly_57_Administration Storey 1,    !- Name
    0,                        !- Direction of Relative North
    0,                        !- X Origin
    0,                        !- Y Origin
    0,                        !- Z Origin
    1,                        !- Type
    1,                        !- Multiplier
    autocalculate,            !- Ceiling Height
    autocalculate,            !- Volume
    autocalculate,            !- Floor Area
    ,                         !- Zone Inside Convection Algorithm
    ,                         !- Zone Outside Convection Algorithm
    Yes;                      !- Part of Total Floor Area

ZONE,
    Block Poly_57_Administration Storey 2,    !- Name
    0,                        !- Direction of Relative North
    0,                        !- X Origin
    0,                        !- Y Origin
    0,                        !- Z Origin
    1,                        !- Type
    1,                        !- Multiplier
    autocalculate,            !- Ceiling Height
    autocalculate,            !- Volume
    autocalculate,            !- Floor Area
    ,                         !- Zone Inside Convection Algorithm
    ,                         !- Zone Outside Convection Algorithm
    Yes;                      !- Part of Total Floor Area

ZONE,
    Block Poly_57_Administration Storey 3,    !- Name
    0,                        !- Direction of Relative North
    0,                        !- X Origin
    0,                        !- Y Origin
    0,                        !- Z Origin
    1,                        !- Type
    1,                        !- Multiplier
    autocalculate,            !- Ceiling Height
    autocalculate,            !- Volume
    autocalculate,            !- Floor Area
    ,                         !- Zone Inside Convection Algorithm
    ,                         !- Zone Outside Convection Algorithm
    Yes;                      !- Part of Total Floor Area

ZONE,
    Block Poly_57_Administration Storey 4,    !- Name
    0,                        !- Direction of Relative North
    0,                        !- X Origin
    0,                        !- Y Origin
    0,                        !- Z Origin
    1,                        !- Type
    1,                        !- Multiplier
    autocalculate,            !- Ceiling Height
    autocalculate,            !- Volume
    autocalculate,            !- Floor Area
    ,                         !- Zone Inside Convection Algorithm
    ,                         !- Zone Outside Convection Algorithm
    Yes;                      !- Part of Total Floor Area

BUILDINGSURFACE:DETAILED,
    Block Poly_57_Administration Storey 0 Wall 0001,    !- Name
    Wall,                     !- Surface Type
    HSCWZ_Public&Industrial_1995_ExtWall,    !- Construction Name
    Block Poly_57_Administration Storey 0,    !- Zone Name
    ,                         !- Space Name
    Outdoors,                 !- Outside Boundary Condition
    ,                         !- Outside Boundary Condition Object
    SunExposed,               !- Sun Exposure
    WindExposed,              !- Wind Exposure
    autocalculate,            !- View Factor to Ground
    autocalculate,            !- Number of Vertices
    9.570166039920878,        !- Vertex 1 Xcoordinate
    44.73530222894624,        !- Vertex 1 Ycoordinate
    3,                        !- Vertex 1 Zcoordinate
    9.570166039920878,        !- Vertex 2 Xcoordinate
    44.73530222894624,        !- Vertex 2 Ycoordinate
    0,                        !- Vertex 2 Zcoordinate
    5.615043988102116,        !- Vertex 3 Xcoordinate
    41.1340618673712,         !- Vertex 3 Ycoordinate
    0,                        !- Vertex 3 Zcoordinate
    5.615043988102116,        !- Vertex 4 Xcoordinate
    41.1340618673712,         !- Vertex 4 Ycoordinate
    3;                        !- Vertex 4 Zcoordinate

BUILDINGSURFACE:DETAILED,
    Block Poly_57_Administration Storey 0 Wall 0002,    !- Name
    Wall,                     !- Surface Type
    HSCWZ_Public&Industrial_1995_ExtWall,    !- Construction Name
    Block Poly_57_Administration Storey 0,    !- Zone Name
    ,                         !- Space Name
    Outdoors,                 !- Outside Boundary Condition
    ,                         !- Outside Boundary Condition Object
    SunExposed,               !- Sun Exposure
    WindExposed,              !- Wind Exposure
    autocalculate,            !- View Factor to Ground
    autocalculate,            !- Number of Vertices
    5.615043988102116,        !- Vertex 1 Xcoordinate
    41.1340618673712,         !- Vertex 1 Ycoordinate
    3,                        !- Vertex 1 Zcoordinate
    5.615043988102116,        !- Vertex 2 Xcoordinate
    41.1340618673712,         !- Vertex 2 Ycoordinate
    0,                        !- Vertex 2 Zcoordinate
    2.3905753248836845,       !- Vertex 3 Xcoordinate
    35.41556950751692,        !- Vertex 3 Ycoordinate
    0,                        !- Vertex 3 Zcoordinate
    2.3905753248836845,       !- Vertex 4 Xcoordinate
    35.41556950751692,        !- Vertex 4 Ycoordinate
    3;                        !- Vertex 4 Zcoordinate

BUILDINGSURFACE:DETAILED,
    Block Poly_57_Administration Storey 0 Wall 0003,    !- Name
    Wall,                     !- Surface Type
    HSCWZ_Public&Industrial_1995_ExtWall,    !- Construction Name
    Block Poly_57_Administration Storey 0,    !- Zone Name
    ,                         !- Space Name
    Outdoors,                 !- Outside Boundary Condition
    ,                         !- Outside Boundary Condition Object
    SunExposed,               !- Sun Exposure
    WindExposed,              !- Wind Exposure
    autocalculate,            !- View Factor to Ground
    autocalculate,            !- Number of Vertices
    2.3905753248836845,       !- Vertex 1 Xcoordinate
    35.41556950751692,        !- Vertex 1 Ycoordinate
    3,                        !- Vertex 1 Zcoordinate
    2.3905753248836845,       !- Vertex 2 Xcoordinate
    35.41556950751692,        !- Vertex 2 Ycoordinate
    0,                        !- Vertex 2 Zcoordinate
    0,                        !- Vertex 3 Xcoordinate
    28.13269183132797,        !- Vertex 3 Ycoordinate
    0,                        !- Vertex 3 Zcoordinate
    0,                        !- Vertex 4 Xcoordinate
    28.13269183132797,        !- Vertex 4 Ycoordinate
    3;                        !- Vertex 4 Zcoordinate

BUILDINGSURFACE:DETAILED,
    Block Poly_57_Administration Storey 0 Wall 0004,    !- Name
    Wall,                     !- Surface Type
    HSCWZ_Public&Industrial_1995_ExtWall,    !- Construction Name
    Block Poly_57_Administration Storey 0,    !- Zone Name
    ,                         !- Space Name
    Outdoors,                 !- Outside Boundary Condition
    ,                         !- Outside Boundary Condition Object
    SunExposed,               !- Sun Exposure
    WindExposed,              !- Wind Exposure
    autocalculate,            !- View Factor to Ground
    autocalculate,            !- Number of Vertices
    0,                        !- Vertex 1 Xcoordinate
    28.13269183132797,        !- Vertex 1 Ycoordinate
    3,                        !- Vertex 1 Zcoordinate
    0,                        !- Vertex 2 Xcoordinate
    28.13269183132797,        !- Vertex 2 Ycoordinate
    0,                        !- Vertex 2 Zcoordinate
    0.7032068736152723,       !- Vertex 3 Xcoordinate
    24.13097620755434,        !- Vertex 3 Ycoordinate
    0,                        !- Vertex 3 Zcoordinate
    0.7032068736152723,       !- Vertex 4 Xcoordinate
    24.13097620755434,        !- Vertex 4 Ycoordinate
    3;                        !- Vertex 4 Zcoordinate

BUILDINGSURFACE:DETAILED,
    Block Poly_57_Administration Storey 0 Wall 0005,    !- Name
    Wall,                     !- Surface Type
    HSCWZ_Public&Industrial_1995_ExtWall,    !- Construction Name
    Block Poly_57_Administration Storey 0,    !- Zone Name
    ,                         !- Space Name
    Outdoors,                 !- Outside Boundary Condition
    ,                         !- Outside Boundary Condition Object
    SunExposed,               !- Sun Exposure
    WindExposed,              !- Wind Exposure
    autocalculate,            !- View Factor to Ground
    autocalculate,            !- Number of Vertices
    0.7032068736152723,       !- Vertex 1 Xcoordinate
    24.13097620755434,        !- Vertex 1 Ycoordinate
    3,                        !- Vertex 1 Zcoordinate
    0.7032068736152723,       !- Vertex 2 Xcoordinate
    24.13097620755434,        !- Vertex 2 Ycoordinate
    0,                        !- Vertex 2 Zcoordinate
    4.227517550752964,        !- Vertex 3 Xcoordinate
    17.75980935851112,        !- Vertex 3 Ycoordinate
    0,                        !- Vertex 3 Zcoordinate
    4.227517550752964,        !- Vertex 4 Xcoordinate
    17.75980935851112,        !- Vertex 4 Ycoordinate
    3;                        !- Vertex 4 Zcoordinate

BUILDINGSURFACE:DETAILED,
    Block Poly_57_Administration Storey 0 Wall 0006,    !- Name
    Wall,                     !- Surface Type
    HSCWZ_Public&Industrial_1995_ExtWall,    !- Construction Name
    Block Poly_57_Administration Storey 0,    !- Zone Name
    ,                         !- Space Name
    Outdoors,                 !- Outside Boundary Condition
    ,                         !- Outside Boundary Condition Object
    SunExposed,               !- Sun Exposure
    WindExposed,              !- Wind Exposure
    autocalculate,            !- View Factor to Ground
    autocalculate,            !- Number of Vertices
    4.227517550752964,        !- Vertex 1 Xcoordinate
    17.75980935851112,        !- Vertex 1 Ycoordinate
    3,                        !- Vertex 1 Zcoordinate
    4.227517550752964,        !- Vertex 2 Xcoordinate
    17.75980935851112,        !- Vertex 2 Ycoordinate
    0,                        !- Vertex 2 Zcoordinate
    11.168160954490304,       !- Vertex 3 Xcoordinate
    10.67363831680268,        !- Vertex 3 Ycoordinate
    0,                        !- Vertex 3 Zcoordinate
    11.168160954490304,       !- Vertex 4 Xcoordinate
    10.67363831680268,        !- Vertex 4 Ycoordinate
    3;                        !- Vertex 4 Zcoordinate

BUILDINGSURFACE:DETAILED,
    Block Poly_57_Administration Storey 0 Wall 0007,    !- Name
    Wall,                     !- Surface Type
    HSCWZ_Public&Industrial_1995_ExtWall,    !- Construction Name
    Block Poly_57_Administration Storey 0,    !- Zone Name
    ,                         !- Space Name
    Outdoors,                 !- Outside Boundary Condition
    ,                         !- Outside Boundary Condition Object
    SunExposed,               !- Sun Exposure
    WindExposed,              !- Wind Exposure
    autocalculate,            !- View Factor to Ground
    autocalculate,            !- Number of Vertices
    11.168160954490304,       !- Vertex 1 Xcoordinate
    10.67363831680268,        !- Vertex 1 Ycoordinate
    3,                        !- Vertex 1 Zcoordinate
    11.168160954490304,       !- Vertex 2 Xcoordinate
    10.67363831680268,        !- Vertex 2 Ycoordinate
    0,                        !- Vertex 2 Zcoordinate
    19.652476686926093,       !- Vertex 3 Xcoordinate
    5.00635452568531,         !- Vertex 3 Ycoordinate
    0,                        !- Vertex 3 Zcoordinate
    19.652476686926093,       !- Vertex 4 Xcoordinate
    5.00635452568531,         !- Vertex 4 Ycoordinate
    3;                        !- Vertex 4 Zcoordinate

BUILDINGSURFACE:DETAILED,
    Block Poly_57_Administration Storey 0 Wall 0008,    !- Name
    Wall,                     !- Surface Type
    HSCWZ_Public&Industrial_1995_ExtWall,    !- Construction Name
    Block Poly_57_Administration Storey 0,    !- Zone Name
    ,                         !- Space Name
    Outdoors,                 !- Outside Boundary Condition
    ,                         !- Outside Boundary Condition Object
    SunExposed,               !- Sun Exposure
    WindExposed,              !- Wind Exposure
    autocalculate,            !- View Factor to Ground
    autocalculate,            !- Number of Vertices
    19.652476686926093,       !- Vertex 1 Xcoordinate
    5.00635452568531,         !- Vertex 1 Ycoordinate
    3,                        !- Vertex 1 Zcoordinate
    19.652476686926093,       !- Vertex 2 Xcoordinate
    5.00635452568531,         !- Vertex 2 Ycoordinate
    0,                        !- Vertex 2 Zcoordinate
    27.698096323176287,       !- Vertex 3 Xcoordinate
    1.8955740747042,          !- Vertex 3 Ycoordinate
    0,                        !- Vertex 3 Zcoordinate
    27.698096323176287,       !- Vertex 4 Xcoordinate
    1.8955740747042,          !- Vertex 4 Ycoordinate
    3;                        !- Vertex 4 Zcoordinate

BUILDINGSURFACE:DETAILED,
    Block Poly_57_Administration Storey 0 Wall 0009,    !- Name
    Wall,                     !- Surface Type
    HSCWZ_Public&Industrial_1995_ExtWall,    !- Construction Name
    Block Poly_57_Administration Storey 0,    !- Zone Name
    ,                         !- Space Name
    Outdoors,                 !- Outside Boundary Condition
    ,                         !- Outside Boundary Condition Object
    SunExposed,               !- Sun Exposure
    WindExposed,              !- Wind Exposure
    autocalculate,            !- View Factor to Ground
    autocalculate,            !- Number of Vertices
    27.698096323176287,       !- Vertex 1 Xcoordinate
    1.8955740747042,          !- Vertex 1 Ycoordinate
    3,                        !- Vertex 1 Zcoordinate
    27.698096323176287,       !- Vertex 2 Xcoordinate
    1.8955740747042,          !- Vertex 2 Ycoordinate
    0,                        !- Vertex 2 Zcoordinate
    36.0469793662196,         !- Vertex 3 Xcoordinate
    0,                        !- Vertex 3 Ycoordinate
    0,                        !- Vertex 3 Zcoordinate
    36.0469793662196,         !- Vertex 4 Xcoordinate
    0,                        !- Vertex 4 Ycoordinate
    3;                        !- Vertex 4 Zcoordinate

BUILDINGSURFACE:DETAILED,
    Block Poly_57_Administration Storey 0 Wall 0010,    !- Name
    Wall,                     !- Surface Type
    HSCWZ_Public&Industrial_1995_ExtWall,    !- Construction Name
    Block Poly_57_Administration Storey 0,    !- Zone Name
    ,                         !- Space Name
    Outdoors,                 !- Outside Boundary Condition
    ,                         !- Outside Boundary Condition Object
    SunExposed,               !- Sun Exposure
    WindExposed,              !- Wind Exposure
    autocalculate,            !- View Factor to Ground
    autocalculate,            !- Number of Vertices
    36.0469793662196,         !- Vertex 1 Xcoordinate
    0,                        !- Vertex 1 Ycoordinate
    3,                        !- Vertex 1 Zcoordinate
    36.0469793662196,         !- Vertex 2 Xcoordinate
    0,                        !- Vertex 2 Ycoordinate
    0,                        !- Vertex 2 Zcoordinate
    43.10226554592373,        !- Vertex 3 Xcoordinate
    0.7842511385679245,       !- Vertex 3 Ycoordinate
    0,                        !- Vertex 3 Zcoordinate
    43.10226554592373,        !- Vertex 4 Xcoordinate
    0.7842511385679245,       !- Vertex 4 Ycoordinate
    3;                        !- Vertex 4 Zcoordinate

BUILDINGSURFACE:DETAILED,
    Block Poly_57_Administration Storey 0 Wall 0011,    !- Name
    Wall,                     !- Surface Type
    HSCWZ_Public&Industrial_1995_ExtWall,    !- Construction Name
    Block Poly_57_Administration Storey 0,    !- Zone Name
    ,                         !- Space Name
    Outdoors,                 !- Outside Boundary Condition
    ,                         !- Outside Boundary Condition Object
    SunExposed,               !- Sun Exposure
    WindExposed,              !- Wind Exposure
    autocalculate,            !- View Factor to Ground
    autocalculate,            !- Number of Vertices
    43.10226554592373,        !- Vertex 1 Xcoordinate
    0.7842511385679245,       !- Vertex 1 Ycoordinate
    3,                        !- Vertex 1 Zcoordinate
    43.10226554592373,        !- Vertex 2 Xcoordinate
    0.7842511385679245,       !- Vertex 2 Ycoordinate
    0,                        !- Vertex 2 Zcoordinate
    49.70754104084335,        !- Vertex 3 Xcoordinate
    3.3490470466203988,       !- Vertex 3 Ycoordinate
    0,                        !- Vertex 3 Zcoordinate
    49.70754104084335,        !- Vertex 4 Xcoordinate
    3.3490470466203988,       !- Vertex 4 Ycoordinate
    3;                        !- Vertex 4 Zcoordinate

BUILDINGSURFACE:DETAILED,
    Block Poly_57_Administration Storey 0 Wall 0012,    !- Name
    Wall,                     !- Surface Type
    HSCWZ_Public&Industrial_1995_ExtWall,    !- Construction Name
    Block Poly_57_Administration Storey 0,    !- Zone Name
    ,                         !- Space Name
    Outdoors,                 !- Outside Boundary Condition
    ,                         !- Outside Boundary Condition Object
    SunExposed,               !- Sun Exposure
    WindExposed,              !- Wind Exposure
    autocalculate,            !- View Factor to Ground
    autocalculate,            !- Number of Vertices
    49.70754104084335,        !- Vertex 1 Xcoordinate
    3.3490470466203988,       !- Vertex 1 Ycoordinate
    3,                        !- Vertex 1 Zcoordinate
    49.70754104084335,        !- Vertex 2 Xcoordinate
    3.3490470466203988,       !- Vertex 2 Ycoordinate
    0,                        !- Vertex 2 Zcoordinate
    54.4465949399164,         !- Vertex 3 Xcoordinate
    8.49112764140591,         !- Vertex 3 Ycoordinate
    0,                        !- Vertex 3 Zcoordinate
    54.4465949399164,         !- Vertex 4 Xcoordinate
    8.49112764140591,         !- Vertex 4 Ycoordinate
    3;                        !- Vertex 4 Zcoordinate

BUILDINGSURFACE:DETAILED,
    Block Poly_57_Administration Storey 0 Wall 0013,    !- Name
    Wall,                     !- Surface Type
    HSCWZ_Public&Industrial_1995_ExtWall,    !- Construction Name
    Block Poly_57_Administration Storey 0,    !- Zone Name
    ,                         !- Space Name
    Outdoors,                 !- Outside Boundary Condition
    ,                         !- Outside Boundary Condition Object
    SunExposed,               !- Sun Exposure
    WindExposed,              !- Wind Exposure
    autocalculate,            !- View Factor to Ground
    autocalculate,            !- Number of Vertices
    54.4465949399164,         !- Vertex 1 Xcoordinate
    8.49112764140591,         !- Vertex 1 Ycoordinate
    3,                        !- Vertex 1 Zcoordinate
    54.4465949399164,         !- Vertex 2 Xcoordinate
    8.49112764140591,         !- Vertex 2 Ycoordinate
    0,                        !- Vertex 2 Zcoordinate
    58.4808002486825,         !- Vertex 3 Xcoordinate
    17.524070274084806,       !- Vertex 3 Ycoordinate
    0,                        !- Vertex 3 Zcoordinate
    58.4808002486825,         !- Vertex 4 Xcoordinate
    17.524070274084806,       !- Vertex 4 Ycoordinate
    3;                        !- Vertex 4 Zcoordinate

BUILDINGSURFACE:DETAILED,
    Block Poly_57_Administration Storey 0 Wall 0014,    !- Name
    Wall,                     !- Surface Type
    HSCWZ_Public&Industrial_1995_ExtWall,    !- Construction Name
    Block Poly_57_Administration Storey 0,    !- Zone Name
    ,                         !- Space Name
    Outdoors,                 !- Outside Boundary Condition
    ,                         !- Outside Boundary Condition Object
    SunExposed,               !- Sun Exposure
    WindExposed,              !- Wind Exposure
    autocalculate,            !- View Factor to Ground
    autocalculate,            !- Number of Vertices
    58.4808002486825,         !- Vertex 1 Xcoordinate
    17.524070274084806,       !- Vertex 1 Ycoordinate
    3,                        !- Vertex 1 Zcoordinate
    58.4808002486825,         !- Vertex 2 Xcoordinate
    17.524070274084806,       !- Vertex 2 Ycoordinate
    0,                        !- Vertex 2 Zcoordinate
    57.86473142134491,        !- Vertex 3 Xcoordinate
    27.51171887619421,        !- Vertex 3 Ycoordinate
    0,                        !- Vertex 3 Zcoordinate
    57.86473142134491,        !- Vertex 4 Xcoordinate
    27.51171887619421,        !- Vertex 4 Ycoordinate
    3;                        !- Vertex 4 Zcoordinate

BUILDINGSURFACE:DETAILED,
    Block Poly_57_Administration Storey 0 Wall 0015,    !- Name
    Wall,                     !- Surface Type
    HSCWZ_Public&Industrial_1995_ExtWall,    !- Construction Name
    Block Poly_57_Administration Storey 0,    !- Zone Name
    ,                         !- Space Name
    Outdoors,                 !- Outside Boundary Condition
    ,                         !- Outside Boundary Condition Object
    SunExposed,               !- Sun Exposure
    WindExposed,              !- Wind Exposure
    autocalculate,            !- View Factor to Ground
    autocalculate,            !- Number of Vertices
    57.86473142134491,        !- Vertex 1 Xcoordinate
    27.51171887619421,        !- Vertex 1 Ycoordinate
    3,                        !- Vertex 1 Zcoordinate
    57.86473142134491,        !- Vertex 2 Xcoordinate
    27.51171887619421,        !- Vertex 2 Ycoordinate
    0,                        !- Vertex 2 Zcoordinate
    55.88727457728237,        !- Vertex 3 Xcoordinate
    35.523455287795514,       !- Vertex 3 Ycoordinate
    0,                        !- Vertex 3 Zcoordinate
    55.88727457728237,        !- Vertex 4 Xcoordinate
    35.523455287795514,       !- Vertex 4 Ycoordinate
    3;                        !- Vertex 4 Zcoordinate

BUILDINGSURFACE:DETAILED,
    Block Poly_57_Administration Storey 0 Wall 0016,    !- Name
    Wall,                     !- Surface Type
    HSCWZ_Public&Industrial_1995_ExtWall,    !- Construction Name
    Block Poly_57_Administration Storey 0,    !- Zone Name
    ,                         !- Space Name
    Outdoors,                 !- Outside Boundary Condition
    ,                         !- Outside Boundary Condition Object
    SunExposed,               !- Sun Exposure
    WindExposed,              !- Wind Exposure
    autocalculate,            !- View Factor to Ground
    autocalculate,            !- Number of Vertices
    55.88727457728237,        !- Vertex 1 Xcoordinate
    35.523455287795514,       !- Vertex 1 Ycoordinate
    3,                        !- Vertex 1 Zcoordinate
    55.88727457728237,        !- Vertex 2 Xcoordinate
    35.523455287795514,       !- Vertex 2 Ycoordinate
    0,                        !- Vertex 2 Zcoordinate
    49.29345961642685,        !- Vertex 3 Xcoordinate
    46.81776582496241,        !- Vertex 3 Ycoordinate
    0,                        !- Vertex 3 Zcoordinate
    49.29345961642685,        !- Vertex 4 Xcoordinate
    46.81776582496241,        !- Vertex 4 Ycoordinate
    3;                        !- Vertex 4 Zcoordinate

BUILDINGSURFACE:DETAILED,
    Block Poly_57_Administration Storey 0 Wall 0017,    !- Name
    Wall,                     !- Surface Type
    HSCWZ_Public&Industrial_1995_ExtWall,    !- Construction Name
    Block Poly_57_Administration Storey 0,    !- Zone Name
    ,                         !- Space Name
    Outdoors,                 !- Outside Boundary Condition
    ,                         !- Outside Boundary Condition Object
    SunExposed,               !- Sun Exposure
    WindExposed,              !- Wind Exposure
    autocalculate,            !- View Factor to Ground
    autocalculate,            !- Number of Vertices
    49.29345961642685,        !- Vertex 1 Xcoordinate
    46.81776582496241,        !- Vertex 1 Ycoordinate
    3,                        !- Vertex 1 Zcoordinate
    49.29345961642685,        !- Vertex 2 Xcoordinate
    46.81776582496241,        !- Vertex 2 Ycoordinate
    0,                        !- Vertex 2 Zcoordinate
    45.172305399086326,       !- Vertex 3 Xcoordinate
    51.42362080840394,        !- Vertex 3 Ycoordinate
    0,                        !- Vertex 3 Zcoordinate
    45.172305399086326,       !- Vertex 4 Xcoordinate
    51.42362080840394,        !- Vertex 4 Ycoordinate
    3;                        !- Vertex 4 Zcoordinate

BUILDINGSURFACE:DETAILED,
    Block Poly_57_Administration Storey 0 Wall 0018,    !- Name
    Wall,                     !- Surface Type
    HSCWZ_Public&Industrial_1995_ExtWall,    !- Construction Name
    Block Poly_57_Administration Storey 0,    !- Zone Name
    ,                         !- Space Name
    Outdoors,                 !- Outside Boundary Condition
    ,                         !- Outside Boundary Condition Object
    SunExposed,               !- Sun Exposure
    WindExposed,              !- Wind Exposure
    autocalculate,            !- View Factor to Ground
    autocalculate,            !- Number of Vertices
    45.172305399086326,       !- Vertex 1 Xcoordinate
    51.42362080840394,        !- Vertex 1 Ycoordinate
    3,                        !- Vertex 1 Zcoordinate
    45.172305399086326,       !- Vertex 2 Xcoordinate
    51.42362080840394,        !- Vertex 2 Ycoordinate
    0,                        !- Vertex 2 Zcoordinate
    36.65250111126807,        !- Vertex 3 Xcoordinate
    54.65216964390129,        !- Vertex 3 Ycoordinate
    0,                        !- Vertex 3 Zcoordinate
    36.65250111126807,        !- Vertex 4 Xcoordinate
    54.65216964390129,        !- Vertex 4 Ycoordinate
    3;                        !- Vertex 4 Zcoordinate

BUILDINGSURFACE:DETAILED,
    Block Poly_57_Administration Storey 0 Wall 0019,    !- Name
    Wall,                     !- Surface Type
    HSCWZ_Public&Industrial_1995_ExtWall,    !- Construction Name
    Block Poly_57_Administration Storey 0,    !- Zone Name
    ,                         !- Space Name
    Outdoors,                 !- Outside Boundary Condition
    ,                         !- Outside Boundary Condition Object
    SunExposed,               !- Sun Exposure
    WindExposed,              !- Wind Exposure
    autocalculate,            !- View Factor to Ground
    autocalculate,            !- Number of Vertices
    36.65250111126807,        !- Vertex 1 Xcoordinate
    54.65216964390129,        !- Vertex 1 Ycoordinate
    3,                        !- Vertex 1 Zcoordinate
    36.65250111126807,        !- Vertex 2 Xcoordinate
    54.65216964390129,        !- Vertex 2 Ycoordinate
    0,                        !- Vertex 2 Zcoordinate
    29.605322141665965,       !- Vertex 3 Xcoordinate
    54.42217774409801,        !- Vertex 3 Ycoordinate
    0,                        !- Vertex 3 Zcoordinate
    29.605322141665965,       !- Vertex 4 Xcoordinate
    54.42217774409801,        !- Vertex 4 Ycoordinate
    3;                        !- Vertex 4 Zcoordinate

BUILDINGSURFACE:DETAILED,
    Block Poly_57_Administration Storey 0 Wall 0020,    !- Name
    Wall,                     !- Surface Type
    HSCWZ_Public&Industrial_1995_ExtWall,    !- Construction Name
    Block Poly_57_Administration Storey 0,    !- Zone Name
    ,                         !- Space Name
    Outdoors,                 !- Outside Boundary Condition
    ,                         !- Outside Boundary Condition Object
    SunExposed,               !- Sun Exposure
    WindExposed,              !- Wind Exposure
    autocalculate,            !- View Factor to Ground
    autocalculate,            !- Number of Vertices
    29.605322141665965,       !- Vertex 1 Xcoordinate
    54.42217774409801,        !- Vertex 1 Ycoordinate
    3,                        !- Vertex 1 Zcoordinate
    29.605322141665965,       !- Vertex 2 Xcoordinate
    54.42217774409801,        !- Vertex 2 Ycoordinate
    0,                        !- Vertex 2 Zcoordinate
    20.901560825121123,       !- Vertex 3 Xcoordinate
    51.55533633520827,        !- Vertex 3 Ycoordinate
    0,                        !- Vertex 3 Zcoordinate
    20.901560825121123,       !- Vertex 4 Xcoordinate
    51.55533633520827,        !- Vertex 4 Ycoordinate
    3;                        !- Vertex 4 Zcoordinate

BUILDINGSURFACE:DETAILED,
    Block Poly_57_Administration Storey 0 Wall 0021,    !- Name
    Wall,                     !- Surface Type
    HSCWZ_Public&Industrial_1995_ExtWall,    !- Construction Name
    Block Poly_57_Administration Storey 0,    !- Zone Name
    ,                         !- Space Name
    Outdoors,                 !- Outside Boundary Condition
    ,                         !- Outside Boundary Condition Object
    SunExposed,               !- Sun Exposure
    WindExposed,              !- Wind Exposure
    autocalculate,            !- View Factor to Ground
    autocalculate,            !- Number of Vertices
    20.901560825121123,       !- Vertex 1 Xcoordinate
    51.55533633520827,        !- Vertex 1 Ycoordinate
    3,                        !- Vertex 1 Zcoordinate
    20.901560825121123,       !- Vertex 2 Xcoordinate
    51.55533633520827,        !- Vertex 2 Ycoordinate
    0,                        !- Vertex 2 Zcoordinate
    9.570166039920878,        !- Vertex 3 Xcoordinate
    44.73530222894624,        !- Vertex 3 Ycoordinate
    0,                        !- Vertex 3 Zcoordinate
    9.570166039920878,        !- Vertex 4 Xcoordinate
    44.73530222894624,        !- Vertex 4 Ycoordinate
    3;                        !- Vertex 4 Zcoordinate

BUILDINGSURFACE:DETAILED,
    Block Poly_57_Administration Storey 0 Floor 0001,    !- Name
    Floor,                    !- Surface Type
    HSCWZ_Public&Industrial_1995_FloorGround,    !- Construction Name
    Block Poly_57_Administration Storey 0,    !- Zone Name
    ,                         !- Space Name
    Ground,                   !- Outside Boundary Condition
    ,                         !- Outside Boundary Condition Object
    NoSun,                    !- Sun Exposure
    NoWind,                   !- Wind Exposure
    autocalculate,            !- View Factor to Ground
    autocalculate,            !- Number of Vertices
    49.29345961642685,        !- Vertex 1 Xcoordinate
    46.81776582496241,        !- Vertex 1 Ycoordinate
    0,                        !- Vertex 1 Zcoordinate
    55.88727457728237,        !- Vertex 2 Xcoordinate
    35.523455287795514,       !- Vertex 2 Ycoordinate
    0,                        !- Vertex 2 Zcoordinate
    57.86473142134491,        !- Vertex 3 Xcoordinate
    27.51171887619421,        !- Vertex 3 Ycoordinate
    0,                        !- Vertex 3 Zcoordinate
    58.4808002486825,         !- Vertex 4 Xcoordinate
    17.524070274084806,       !- Vertex 4 Ycoordinate
    0,                        !- Vertex 4 Zcoordinate
    54.4465949399164,         !- Vertex 5 Xcoordinate
    8.49112764140591,         !- Vertex 5 Ycoordinate
    0,                        !- Vertex 5 Zcoordinate
    49.70754104084335,        !- Vertex 6 Xcoordinate
    3.3490470466203988,       !- Vertex 6 Ycoordinate
    0,                        !- Vertex 6 Zcoordinate
    43.10226554592373,        !- Vertex 7 Xcoordinate
    0.7842511385679245,       !- Vertex 7 Ycoordinate
    0,                        !- Vertex 7 Zcoordinate
    36.0469793662196,         !- Vertex 8 Xcoordinate
    0,                        !- Vertex 8 Ycoordinate
    0,                        !- Vertex 8 Zcoordinate
    27.698096323176287,       !- Vertex 9 Xcoordinate
    1.8955740747042,          !- Vertex 9 Ycoordinate
    0,                        !- Vertex 9 Zcoordinate
    19.652476686926093,       !- Vertex 10 Xcoordinate
    5.00635452568531,         !- Vertex 10 Ycoordinate
    0,                        !- Vertex 10 Zcoordinate
    11.168160954490304,       !- Vertex 11 Xcoordinate
    10.67363831680268,        !- Vertex 11 Ycoordinate
    0,                        !- Vertex 11 Zcoordinate
    4.227517550752964,        !- Vertex 12 Xcoordinate
    17.75980935851112,        !- Vertex 12 Ycoordinate
    0,                        !- Vertex 12 Zcoordinate
    0.7032068736152723,       !- Vertex 13 Xcoordinate
    24.13097620755434,        !- Vertex 13 Ycoordinate
    0,                        !- Vertex 13 Zcoordinate
    0,                        !- Vertex 14 Xcoordinate
    28.13269183132797,        !- Vertex 14 Ycoordinate
    0,                        !- Vertex 14 Zcoordinate
    2.3905753248836845,       !- Vertex 15 Xcoordinate
    35.41556950751692,        !- Vertex 15 Ycoordinate
    0,                        !- Vertex 15 Zcoordinate
    5.615043988102116,        !- Vertex 16 Xcoordinate
    41.1340618673712,         !- Vertex 16 Ycoordinate
    0,                        !- Vertex 16 Zcoordinate
    9.570166039920878,        !- Vertex 17 Xcoordinate
    44.73530222894624,        !- Vertex 17 Ycoordinate
    0,                        !- Vertex 17 Zcoordinate
    20.901560825121123,       !- Vertex 18 Xcoordinate
    51.55533633520827,        !- Vertex 18 Ycoordinate
    0,                        !- Vertex 18 Zcoordinate
    29.605322141665965,       !- Vertex 19 Xcoordinate
    54.42217774409801,        !- Vertex 19 Ycoordinate
    0,                        !- Vertex 19 Zcoordinate
    36.65250111126807,        !- Vertex 20 Xcoordinate
    54.65216964390129,        !- Vertex 20 Ycoordinate
    0,                        !- Vertex 20 Zcoordinate
    45.172305399086326,       !- Vertex 21 Xcoordinate
    51.42362080840394,        !- Vertex 21 Ycoordinate
    0;                        !- Vertex 21 Zcoordinate

BUILDINGSURFACE:DETAILED,
    Block Poly_57_Administration Storey 1 Wall 0001,    !- Name
    Wall,                     !- Surface Type
    HSCWZ_Public&Industrial_1995_ExtWall,    !- Construction Name
    Block Poly_57_Administration Storey 1,    !- Zone Name
    ,                         !- Space Name
    Outdoors,                 !- Outside Boundary Condition
    ,                         !- Outside Boundary Condition Object
    SunExposed,               !- Sun Exposure
    WindExposed,              !- Wind Exposure
    autocalculate,            !- View Factor to Ground
    autocalculate,            !- Number of Vertices
    9.570166039920878,        !- Vertex 1 Xcoordinate
    44.73530222894624,        !- Vertex 1 Ycoordinate
    6,                        !- Vertex 1 Zcoordinate
    9.570166039920878,        !- Vertex 2 Xcoordinate
    44.73530222894624,        !- Vertex 2 Ycoordinate
    3,                        !- Vertex 2 Zcoordinate
    5.615043988102116,        !- Vertex 3 Xcoordinate
    41.1340618673712,         !- Vertex 3 Ycoordinate
    3,                        !- Vertex 3 Zcoordinate
    5.615043988102116,        !- Vertex 4 Xcoordinate
    41.1340618673712,         !- Vertex 4 Ycoordinate
    6;                        !- Vertex 4 Zcoordinate

BUILDINGSURFACE:DETAILED,
    Block Poly_57_Administration Storey 1 Wall 0002,    !- Name
    Wall,                     !- Surface Type
    HSCWZ_Public&Industrial_1995_ExtWall,    !- Construction Name
    Block Poly_57_Administration Storey 1,    !- Zone Name
    ,                         !- Space Name
    Outdoors,                 !- Outside Boundary Condition
    ,                         !- Outside Boundary Condition Object
    SunExposed,               !- Sun Exposure
    WindExposed,              !- Wind Exposure
    autocalculate,            !- View Factor to Ground
    autocalculate,            !- Number of Vertices
    5.615043988102116,        !- Vertex 1 Xcoordinate
    41.1340618673712,         !- Vertex 1 Ycoordinate
    6,                        !- Vertex 1 Zcoordinate
    5.615043988102116,        !- Vertex 2 Xcoordinate
    41.1340618673712,         !- Vertex 2 Ycoordinate
    3,                        !- Vertex 2 Zcoordinate
    2.3905753248836845,       !- Vertex 3 Xcoordinate
    35.41556950751692,        !- Vertex 3 Ycoordinate
    3,                        !- Vertex 3 Zcoordinate
    2.3905753248836845,       !- Vertex 4 Xcoordinate
    35.41556950751692,        !- Vertex 4 Ycoordinate
    6;                        !- Vertex 4 Zcoordinate

BUILDINGSURFACE:DETAILED,
    Block Poly_57_Administration Storey 1 Wall 0003,    !- Name
    Wall,                     !- Surface Type
    HSCWZ_Public&Industrial_1995_ExtWall,    !- Construction Name
    Block Poly_57_Administration Storey 1,    !- Zone Name
    ,                         !- Space Name
    Outdoors,                 !- Outside Boundary Condition
    ,                         !- Outside Boundary Condition Object
    SunExposed,               !- Sun Exposure
    WindExposed,              !- Wind Exposure
    autocalculate,            !- View Factor to Ground
    autocalculate,            !- Number of Vertices
    2.3905753248836845,       !- Vertex 1 Xcoordinate
    35.41556950751692,        !- Vertex 1 Ycoordinate
    6,                        !- Vertex 1 Zcoordinate
    2.3905753248836845,       !- Vertex 2 Xcoordinate
    35.41556950751692,        !- Vertex 2 Ycoordinate
    3,                        !- Vertex 2 Zcoordinate
    0,                        !- Vertex 3 Xcoordinate
    28.13269183132797,        !- Vertex 3 Ycoordinate
    3,                        !- Vertex 3 Zcoordinate
    0,                        !- Vertex 4 Xcoordinate
    28.13269183132797,        !- Vertex 4 Ycoordinate
    6;                        !- Vertex 4 Zcoordinate

BUILDINGSURFACE:DETAILED,
    Block Poly_57_Administration Storey 1 Wall 0004,    !- Name
    Wall,                     !- Surface Type
    HSCWZ_Public&Industrial_1995_ExtWall,    !- Construction Name
    Block Poly_57_Administration Storey 1,    !- Zone Name
    ,                         !- Space Name
    Outdoors,                 !- Outside Boundary Condition
    ,                         !- Outside Boundary Condition Object
    SunExposed,               !- Sun Exposure
    WindExposed,              !- Wind Exposure
    autocalculate,            !- View Factor to Ground
    autocalculate,            !- Number of Vertices
    0,                        !- Vertex 1 Xcoordinate
    28.13269183132797,        !- Vertex 1 Ycoordinate
    6,                        !- Vertex 1 Zcoordinate
    0,                        !- Vertex 2 Xcoordinate
    28.13269183132797,        !- Vertex 2 Ycoordinate
    3,                        !- Vertex 2 Zcoordinate
    0.7032068736152723,       !- Vertex 3 Xcoordinate
    24.13097620755434,        !- Vertex 3 Ycoordinate
    3,                        !- Vertex 3 Zcoordinate
    0.7032068736152723,       !- Vertex 4 Xcoordinate
    24.13097620755434,        !- Vertex 4 Ycoordinate
    6;                        !- Vertex 4 Zcoordinate

BUILDINGSURFACE:DETAILED,
    Block Poly_57_Administration Storey 1 Wall 0005,    !- Name
    Wall,                     !- Surface Type
    HSCWZ_Public&Industrial_1995_ExtWall,    !- Construction Name
    Block Poly_57_Administration Storey 1,    !- Zone Name
    ,                         !- Space Name
    Outdoors,                 !- Outside Boundary Condition
    ,                         !- Outside Boundary Condition Object
    SunExposed,               !- Sun Exposure
    WindExposed,              !- Wind Exposure
    autocalculate,            !- View Factor to Ground
    autocalculate,            !- Number of Vertices
    0.7032068736152723,       !- Vertex 1 Xcoordinate
    24.13097620755434,        !- Vertex 1 Ycoordinate
    6,                        !- Vertex 1 Zcoordinate
    0.7032068736152723,       !- Vertex 2 Xcoordinate
    24.13097620755434,        !- Vertex 2 Ycoordinate
    3,                        !- Vertex 2 Zcoordinate
    4.227517550752964,        !- Vertex 3 Xcoordinate
    17.75980935851112,        !- Vertex 3 Ycoordinate
    3,                        !- Vertex 3 Zcoordinate
    4.227517550752964,        !- Vertex 4 Xcoordinate
    17.75980935851112,        !- Vertex 4 Ycoordinate
    6;                        !- Vertex 4 Zcoordinate

BUILDINGSURFACE:DETAILED,
    Block Poly_57_Administration Storey 1 Wall 0006,    !- Name
    Wall,                     !- Surface Type
    HSCWZ_Public&Industrial_1995_ExtWall,    !- Construction Name
    Block Poly_57_Administration Storey 1,    !- Zone Name
    ,                         !- Space Name
    Outdoors,                 !- Outside Boundary Condition
    ,                         !- Outside Boundary Condition Object
    SunExposed,               !- Sun Exposure
    WindExposed,              !- Wind Exposure
    autocalculate,            !- View Factor to Ground
    autocalculate,            !- Number of Vertices
    4.227517550752964,        !- Vertex 1 Xcoordinate
    17.75980935851112,        !- Vertex 1 Ycoordinate
    6,                        !- Vertex 1 Zcoordinate
    4.227517550752964,        !- Vertex 2 Xcoordinate
    17.75980935851112,        !- Vertex 2 Ycoordinate
    3,                        !- Vertex 2 Zcoordinate
    11.168160954490304,       !- Vertex 3 Xcoordinate
    10.67363831680268,        !- Vertex 3 Ycoordinate
    3,                        !- Vertex 3 Zcoordinate
    11.168160954490304,       !- Vertex 4 Xcoordinate
    10.67363831680268,        !- Vertex 4 Ycoordinate
    6;                        !- Vertex 4 Zcoordinate

BUILDINGSURFACE:DETAILED,
    Block Poly_57_Administration Storey 1 Wall 0007,    !- Name
    Wall,                     !- Surface Type
    HSCWZ_Public&Industrial_1995_ExtWall,    !- Construction Name
    Block Poly_57_Administration Storey 1,    !- Zone Name
    ,                         !- Space Name
    Outdoors,                 !- Outside Boundary Condition
    ,                         !- Outside Boundary Condition Object
    SunExposed,               !- Sun Exposure
    WindExposed,              !- Wind Exposure
    autocalculate,            !- View Factor to Ground
    autocalculate,            !- Number of Vertices
    11.168160954490304,       !- Vertex 1 Xcoordinate
    10.67363831680268,        !- Vertex 1 Ycoordinate
    6,                        !- Vertex 1 Zcoordinate
    11.168160954490304,       !- Vertex 2 Xcoordinate
    10.67363831680268,        !- Vertex 2 Ycoordinate
    3,                        !- Vertex 2 Zcoordinate
    19.652476686926093,       !- Vertex 3 Xcoordinate
    5.00635452568531,         !- Vertex 3 Ycoordinate
    3,                        !- Vertex 3 Zcoordinate
    19.652476686926093,       !- Vertex 4 Xcoordinate
    5.00635452568531,         !- Vertex 4 Ycoordinate
    6;                        !- Vertex 4 Zcoordinate

BUILDINGSURFACE:DETAILED,
    Block Poly_57_Administration Storey 1 Wall 0008,    !- Name
    Wall,                     !- Surface Type
    HSCWZ_Public&Industrial_1995_ExtWall,    !- Construction Name
    Block Poly_57_Administration Storey 1,    !- Zone Name
    ,                         !- Space Name
    Outdoors,                 !- Outside Boundary Condition
    ,                         !- Outside Boundary Condition Object
    SunExposed,               !- Sun Exposure
    WindExposed,              !- Wind Exposure
    autocalculate,            !- View Factor to Ground
    autocalculate,            !- Number of Vertices
    19.652476686926093,       !- Vertex 1 Xcoordinate
    5.00635452568531,         !- Vertex 1 Ycoordinate
    6,                        !- Vertex 1 Zcoordinate
    19.652476686926093,       !- Vertex 2 Xcoordinate
    5.00635452568531,         !- Vertex 2 Ycoordinate
    3,                        !- Vertex 2 Zcoordinate
    27.698096323176287,       !- Vertex 3 Xcoordinate
    1.8955740747042,          !- Vertex 3 Ycoordinate
    3,                        !- Vertex 3 Zcoordinate
    27.698096323176287,       !- Vertex 4 Xcoordinate
    1.8955740747042,          !- Vertex 4 Ycoordinate
    6;                        !- Vertex 4 Zcoordinate

BUILDINGSURFACE:DETAILED,
    Block Poly_57_Administration Storey 1 Wall 0009,    !- Name
    Wall,                     !- Surface Type
    HSCWZ_Public&Industrial_1995_ExtWall,    !- Construction Name
    Block Poly_57_Administration Storey 1,    !- Zone Name
    ,                         !- Space Name
    Outdoors,                 !- Outside Boundary Condition
    ,                         !- Outside Boundary Condition Object
    SunExposed,               !- Sun Exposure
    WindExposed,              !- Wind Exposure
    autocalculate,            !- View Factor to Ground
    autocalculate,            !- Number of Vertices
    27.698096323176287,       !- Vertex 1 Xcoordinate
    1.8955740747042,          !- Vertex 1 Ycoordinate
    6,                        !- Vertex 1 Zcoordinate
    27.698096323176287,       !- Vertex 2 Xcoordinate
    1.8955740747042,          !- Vertex 2 Ycoordinate
    3,                        !- Vertex 2 Zcoordinate
    36.0469793662196,         !- Vertex 3 Xcoordinate
    0,                        !- Vertex 3 Ycoordinate
    3,                        !- Vertex 3 Zcoordinate
    36.0469793662196,         !- Vertex 4 Xcoordinate
    0,                        !- Vertex 4 Ycoordinate
    6;                        !- Vertex 4 Zcoordinate

BUILDINGSURFACE:DETAILED,
    Block Poly_57_Administration Storey 1 Wall 0010,    !- Name
    Wall,                     !- Surface Type
    HSCWZ_Public&Industrial_1995_ExtWall,    !- Construction Name
    Block Poly_57_Administration Storey 1,    !- Zone Name
    ,                         !- Space Name
    Outdoors,                 !- Outside Boundary Condition
    ,                         !- Outside Boundary Condition Object
    SunExposed,               !- Sun Exposure
    WindExposed,              !- Wind Exposure
    autocalculate,            !- View Factor to Ground
    autocalculate,            !- Number of Vertices
    36.0469793662196,         !- Vertex 1 Xcoordinate
    0,                        !- Vertex 1 Ycoordinate
    6,                        !- Vertex 1 Zcoordinate
    36.0469793662196,         !- Vertex 2 Xcoordinate
    0,                        !- Vertex 2 Ycoordinate
    3,                        !- Vertex 2 Zcoordinate
    43.10226554592373,        !- Vertex 3 Xcoordinate
    0.7842511385679245,       !- Vertex 3 Ycoordinate
    3,                        !- Vertex 3 Zcoordinate
    43.10226554592373,        !- Vertex 4 Xcoordinate
    0.7842511385679245,       !- Vertex 4 Ycoordinate
    6;                        !- Vertex 4 Zcoordinate

BUILDINGSURFACE:DETAILED,
    Block Poly_57_Administration Storey 1 Wall 0011,    !- Name
    Wall,                     !- Surface Type
    HSCWZ_Public&Industrial_1995_ExtWall,    !- Construction Name
    Block Poly_57_Administration Storey 1,    !- Zone Name
    ,                         !- Space Name
    Outdoors,                 !- Outside Boundary Condition
    ,                         !- Outside Boundary Condition Object
    SunExposed,               !- Sun Exposure
    WindExposed,              !- Wind Exposure
    autocalculate,            !- View Factor to Ground
    autocalculate,            !- Number of Vertices
    43.10226554592373,        !- Vertex 1 Xcoordinate
    0.7842511385679245,       !- Vertex 1 Ycoordinate
    6,                        !- Vertex 1 Zcoordinate
    43.10226554592373,        !- Vertex 2 Xcoordinate
    0.7842511385679245,       !- Vertex 2 Ycoordinate
    3,                        !- Vertex 2 Zcoordinate
    49.70754104084335,        !- Vertex 3 Xcoordinate
    3.3490470466203988,       !- Vertex 3 Ycoordinate
    3,                        !- Vertex 3 Zcoordinate
    49.70754104084335,        !- Vertex 4 Xcoordinate
    3.3490470466203988,       !- Vertex 4 Ycoordinate
    6;                        !- Vertex 4 Zcoordinate

BUILDINGSURFACE:DETAILED,
    Block Poly_57_Administration Storey 1 Wall 0012,    !- Name
    Wall,                     !- Surface Type
    HSCWZ_Public&Industrial_1995_ExtWall,    !- Construction Name
    Block Poly_57_Administration Storey 1,    !- Zone Name
    ,                         !- Space Name
    Outdoors,                 !- Outside Boundary Condition
    ,                         !- Outside Boundary Condition Object
    SunExposed,               !- Sun Exposure
    WindExposed,              !- Wind Exposure
    autocalculate,            !- View Factor to Ground
    autocalculate,            !- Number of Vertices
    49.70754104084335,        !- Vertex 1 Xcoordinate
    3.3490470466203988,       !- Vertex 1 Ycoordinate
    6,                        !- Vertex 1 Zcoordinate
    49.70754104084335,        !- Vertex 2 Xcoordinate
    3.3490470466203988,       !- Vertex 2 Ycoordinate
    3,                        !- Vertex 2 Zcoordinate
    54.4465949399164,         !- Vertex 3 Xcoordinate
    8.49112764140591,         !- Vertex 3 Ycoordinate
    3,                        !- Vertex 3 Zcoordinate
    54.4465949399164,         !- Vertex 4 Xcoordinate
    8.49112764140591,         !- Vertex 4 Ycoordinate
    6;                        !- Vertex 4 Zcoordinate

BUILDINGSURFACE:DETAILED,
    Block Poly_57_Administration Storey 1 Wall 0013,    !- Name
    Wall,                     !- Surface Type
    HSCWZ_Public&Industrial_1995_ExtWall,    !- Construction Name
    Block Poly_57_Administration Storey 1,    !- Zone Name
    ,                         !- Space Name
    Outdoors,                 !- Outside Boundary Condition
    ,                         !- Outside Boundary Condition Object
    SunExposed,               !- Sun Exposure
    WindExposed,              !- Wind Exposure
    autocalculate,            !- View Factor to Ground
    autocalculate,            !- Number of Vertices
    54.4465949399164,         !- Vertex 1 Xcoordinate
    8.49112764140591,         !- Vertex 1 Ycoordinate
    6,                        !- Vertex 1 Zcoordinate
    54.4465949399164,         !- Vertex 2 Xcoordinate
    8.49112764140591,         !- Vertex 2 Ycoordinate
    3,                        !- Vertex 2 Zcoordinate
    58.4808002486825,         !- Vertex 3 Xcoordinate
    17.524070274084806,       !- Vertex 3 Ycoordinate
    3,                        !- Vertex 3 Zcoordinate
    58.4808002486825,         !- Vertex 4 Xcoordinate
    17.524070274084806,       !- Vertex 4 Ycoordinate
    6;                        !- Vertex 4 Zcoordinate

BUILDINGSURFACE:DETAILED,
    Block Poly_57_Administration Storey 1 Wall 0014,    !- Name
    Wall,                     !- Surface Type
    HSCWZ_Public&Industrial_1995_ExtWall,    !- Construction Name
    Block Poly_57_Administration Storey 1,    !- Zone Name
    ,                         !- Space Name
    Outdoors,                 !- Outside Boundary Condition
    ,                         !- Outside Boundary Condition Object
    SunExposed,               !- Sun Exposure
    WindExposed,              !- Wind Exposure
    autocalculate,            !- View Factor to Ground
    autocalculate,            !- Number of Vertices
    58.4808002486825,         !- Vertex 1 Xcoordinate
    17.524070274084806,       !- Vertex 1 Ycoordinate
    6,                        !- Vertex 1 Zcoordinate
    58.4808002486825,         !- Vertex 2 Xcoordinate
    17.524070274084806,       !- Vertex 2 Ycoordinate
    3,                        !- Vertex 2 Zcoordinate
    57.86473142134491,        !- Vertex 3 Xcoordinate
    27.51171887619421,        !- Vertex 3 Ycoordinate
    3,                        !- Vertex 3 Zcoordinate
    57.86473142134491,        !- Vertex 4 Xcoordinate
    27.51171887619421,        !- Vertex 4 Ycoordinate
    6;                        !- Vertex 4 Zcoordinate

BUILDINGSURFACE:DETAILED,
    Block Poly_57_Administration Storey 1 Wall 0015,    !- Name
    Wall,                     !- Surface Type
    HSCWZ_Public&Industrial_1995_ExtWall,    !- Construction Name
    Block Poly_57_Administration Storey 1,    !- Zone Name
    ,                         !- Space Name
    Outdoors,                 !- Outside Boundary Condition
    ,                         !- Outside Boundary Condition Object
    SunExposed,               !- Sun Exposure
    WindExposed,              !- Wind Exposure
    autocalculate,            !- View Factor to Ground
    autocalculate,            !- Number of Vertices
    57.86473142134491,        !- Vertex 1 Xcoordinate
    27.51171887619421,        !- Vertex 1 Ycoordinate
    6,                        !- Vertex 1 Zcoordinate
    57.86473142134491,        !- Vertex 2 Xcoordinate
    27.51171887619421,        !- Vertex 2 Ycoordinate
    3,                        !- Vertex 2 Zcoordinate
    55.88727457728237,        !- Vertex 3 Xcoordinate
    35.523455287795514,       !- Vertex 3 Ycoordinate
    3,                        !- Vertex 3 Zcoordinate
    55.88727457728237,        !- Vertex 4 Xcoordinate
    35.523455287795514,       !- Vertex 4 Ycoordinate
    6;                        !- Vertex 4 Zcoordinate

BUILDINGSURFACE:DETAILED,
    Block Poly_57_Administration Storey 1 Wall 0016,    !- Name
    Wall,                     !- Surface Type
    HSCWZ_Public&Industrial_1995_ExtWall,    !- Construction Name
    Block Poly_57_Administration Storey 1,    !- Zone Name
    ,                         !- Space Name
    Outdoors,                 !- Outside Boundary Condition
    ,                         !- Outside Boundary Condition Object
    SunExposed,               !- Sun Exposure
    WindExposed,              !- Wind Exposure
    autocalculate,            !- View Factor to Ground
    autocalculate,            !- Number of Vertices
    55.88727457728237,        !- Vertex 1 Xcoordinate
    35.523455287795514,       !- Vertex 1 Ycoordinate
    6,                        !- Vertex 1 Zcoordinate
    55.88727457728237,        !- Vertex 2 Xcoordinate
    35.523455287795514,       !- Vertex 2 Ycoordinate
    3,                        !- Vertex 2 Zcoordinate
    49.29345961642685,        !- Vertex 3 Xcoordinate
    46.81776582496241,        !- Vertex 3 Ycoordinate
    3,                        !- Vertex 3 Zcoordinate
    49.29345961642685,        !- Vertex 4 Xcoordinate
    46.81776582496241,        !- Vertex 4 Ycoordinate
    6;                        !- Vertex 4 Zcoordinate

BUILDINGSURFACE:DETAILED,
    Block Poly_57_Administration Storey 1 Wall 0017,    !- Name
    Wall,                     !- Surface Type
    HSCWZ_Public&Industrial_1995_ExtWall,    !- Construction Name
    Block Poly_57_Administration Storey 1,    !- Zone Name
    ,                         !- Space Name
    Outdoors,                 !- Outside Boundary Condition
    ,                         !- Outside Boundary Condition Object
    SunExposed,               !- Sun Exposure
    WindExposed,              !- Wind Exposure
    autocalculate,            !- View Factor to Ground
    autocalculate,            !- Number of Vertices
    49.29345961642685,        !- Vertex 1 Xcoordinate
    46.81776582496241,        !- Vertex 1 Ycoordinate
    6,                        !- Vertex 1 Zcoordinate
    49.29345961642685,        !- Vertex 2 Xcoordinate
    46.81776582496241,        !- Vertex 2 Ycoordinate
    3,                        !- Vertex 2 Zcoordinate
    45.172305399086326,       !- Vertex 3 Xcoordinate
    51.42362080840394,        !- Vertex 3 Ycoordinate
    3,                        !- Vertex 3 Zcoordinate
    45.172305399086326,       !- Vertex 4 Xcoordinate
    51.42362080840394,        !- Vertex 4 Ycoordinate
    6;                        !- Vertex 4 Zcoordinate

BUILDINGSURFACE:DETAILED,
    Block Poly_57_Administration Storey 1 Wall 0018,    !- Name
    Wall,                     !- Surface Type
    HSCWZ_Public&Industrial_1995_ExtWall,    !- Construction Name
    Block Poly_57_Administration Storey 1,    !- Zone Name
    ,                         !- Space Name
    Outdoors,                 !- Outside Boundary Condition
    ,                         !- Outside Boundary Condition Object
    SunExposed,               !- Sun Exposure
    WindExposed,              !- Wind Exposure
    autocalculate,            !- View Factor to Ground
    autocalculate,            !- Number of Vertices
    45.172305399086326,       !- Vertex 1 Xcoordinate
    51.42362080840394,        !- Vertex 1 Ycoordinate
    6,                        !- Vertex 1 Zcoordinate
    45.172305399086326,       !- Vertex 2 Xcoordinate
    51.42362080840394,        !- Vertex 2 Ycoordinate
    3,                        !- Vertex 2 Zcoordinate
    36.65250111126807,        !- Vertex 3 Xcoordinate
    54.65216964390129,        !- Vertex 3 Ycoordinate
    3,                        !- Vertex 3 Zcoordinate
    36.65250111126807,        !- Vertex 4 Xcoordinate
    54.65216964390129,        !- Vertex 4 Ycoordinate
    6;                        !- Vertex 4 Zcoordinate

BUILDINGSURFACE:DETAILED,
    Block Poly_57_Administration Storey 1 Wall 0019,    !- Name
    Wall,                     !- Surface Type
    HSCWZ_Public&Industrial_1995_ExtWall,    !- Construction Name
    Block Poly_57_Administration Storey 1,    !- Zone Name
    ,                         !- Space Name
    Outdoors,                 !- Outside Boundary Condition
    ,                         !- Outside Boundary Condition Object
    SunExposed,               !- Sun Exposure
    WindExposed,              !- Wind Exposure
    autocalculate,            !- View Factor to Ground
    autocalculate,            !- Number of Vertices
    36.65250111126807,        !- Vertex 1 Xcoordinate
    54.65216964390129,        !- Vertex 1 Ycoordinate
    6,                        !- Vertex 1 Zcoordinate
    36.65250111126807,        !- Vertex 2 Xcoordinate
    54.65216964390129,        !- Vertex 2 Ycoordinate
    3,                        !- Vertex 2 Zcoordinate
    29.605322141665965,       !- Vertex 3 Xcoordinate
    54.42217774409801,        !- Vertex 3 Ycoordinate
    3,                        !- Vertex 3 Zcoordinate
    29.605322141665965,       !- Vertex 4 Xcoordinate
    54.42217774409801,        !- Vertex 4 Ycoordinate
    6;                        !- Vertex 4 Zcoordinate

BUILDINGSURFACE:DETAILED,
    Block Poly_57_Administration Storey 1 Wall 0020,    !- Name
    Wall,                     !- Surface Type
    HSCWZ_Public&Industrial_1995_ExtWall,    !- Construction Name
    Block Poly_57_Administration Storey 1,    !- Zone Name
    ,                         !- Space Name
    Outdoors,                 !- Outside Boundary Condition
    ,                         !- Outside Boundary Condition Object
    SunExposed,               !- Sun Exposure
    WindExposed,              !- Wind Exposure
    autocalculate,            !- View Factor to Ground
    autocalculate,            !- Number of Vertices
    29.605322141665965,       !- Vertex 1 Xcoordinate
    54.42217774409801,        !- Vertex 1 Ycoordinate
    6,                        !- Vertex 1 Zcoordinate
    29.605322141665965,       !- Vertex 2 Xcoordinate
    54.42217774409801,        !- Vertex 2 Ycoordinate
    3,                        !- Vertex 2 Zcoordinate
    20.901560825121123,       !- Vertex 3 Xcoordinate
    51.55533633520827,        !- Vertex 3 Ycoordinate
    3,                        !- Vertex 3 Zcoordinate
    20.901560825121123,       !- Vertex 4 Xcoordinate
    51.55533633520827,        !- Vertex 4 Ycoordinate
    6;                        !- Vertex 4 Zcoordinate

BUILDINGSURFACE:DETAILED,
    Block Poly_57_Administration Storey 1 Wall 0021,    !- Name
    Wall,                     !- Surface Type
    HSCWZ_Public&Industrial_1995_ExtWall,    !- Construction Name
    Block Poly_57_Administration Storey 1,    !- Zone Name
    ,                         !- Space Name
    Outdoors,                 !- Outside Boundary Condition
    ,                         !- Outside Boundary Condition Object
    SunExposed,               !- Sun Exposure
    WindExposed,              !- Wind Exposure
    autocalculate,            !- View Factor to Ground
    autocalculate,            !- Number of Vertices
    20.901560825121123,       !- Vertex 1 Xcoordinate
    51.55533633520827,        !- Vertex 1 Ycoordinate
    6,                        !- Vertex 1 Zcoordinate
    20.901560825121123,       !- Vertex 2 Xcoordinate
    51.55533633520827,        !- Vertex 2 Ycoordinate
    3,                        !- Vertex 2 Zcoordinate
    9.570166039920878,        !- Vertex 3 Xcoordinate
    44.73530222894624,        !- Vertex 3 Ycoordinate
    3,                        !- Vertex 3 Zcoordinate
    9.570166039920878,        !- Vertex 4 Xcoordinate
    44.73530222894624,        !- Vertex 4 Ycoordinate
    6;                        !- Vertex 4 Zcoordinate

BUILDINGSURFACE:DETAILED,
    Block Poly_57_Administration Storey 2 Wall 0001,    !- Name
    Wall,                     !- Surface Type
    HSCWZ_Public&Industrial_1995_ExtWall,    !- Construction Name
    Block Poly_57_Administration Storey 2,    !- Zone Name
    ,                         !- Space Name
    Outdoors,                 !- Outside Boundary Condition
    ,                         !- Outside Boundary Condition Object
    SunExposed,               !- Sun Exposure
    WindExposed,              !- Wind Exposure
    autocalculate,            !- View Factor to Ground
    autocalculate,            !- Number of Vertices
    9.570166039920878,        !- Vertex 1 Xcoordinate
    44.73530222894624,        !- Vertex 1 Ycoordinate
    9,                        !- Vertex 1 Zcoordinate
    9.570166039920878,        !- Vertex 2 Xcoordinate
    44.73530222894624,        !- Vertex 2 Ycoordinate
    6,                        !- Vertex 2 Zcoordinate
    5.615043988102116,        !- Vertex 3 Xcoordinate
    41.1340618673712,         !- Vertex 3 Ycoordinate
    6,                        !- Vertex 3 Zcoordinate
    5.615043988102116,        !- Vertex 4 Xcoordinate
    41.1340618673712,         !- Vertex 4 Ycoordinate
    9;                        !- Vertex 4 Zcoordinate

BUILDINGSURFACE:DETAILED,
    Block Poly_57_Administration Storey 2 Wall 0002,    !- Name
    Wall,                     !- Surface Type
    HSCWZ_Public&Industrial_1995_ExtWall,    !- Construction Name
    Block Poly_57_Administration Storey 2,    !- Zone Name
    ,                         !- Space Name
    Outdoors,                 !- Outside Boundary Condition
    ,                         !- Outside Boundary Condition Object
    SunExposed,               !- Sun Exposure
    WindExposed,              !- Wind Exposure
    autocalculate,            !- View Factor to Ground
    autocalculate,            !- Number of Vertices
    5.615043988102116,        !- Vertex 1 Xcoordinate
    41.1340618673712,         !- Vertex 1 Ycoordinate
    9,                        !- Vertex 1 Zcoordinate
    5.615043988102116,        !- Vertex 2 Xcoordinate
    41.1340618673712,         !- Vertex 2 Ycoordinate
    6,                        !- Vertex 2 Zcoordinate
    2.3905753248836845,       !- Vertex 3 Xcoordinate
    35.41556950751692,        !- Vertex 3 Ycoordinate
    6,                        !- Vertex 3 Zcoordinate
    2.3905753248836845,       !- Vertex 4 Xcoordinate
    35.41556950751692,        !- Vertex 4 Ycoordinate
    9;                        !- Vertex 4 Zcoordinate

BUILDINGSURFACE:DETAILED,
    Block Poly_57_Administration Storey 2 Wall 0003,    !- Name
    Wall,                     !- Surface Type
    HSCWZ_Public&Industrial_1995_ExtWall,    !- Construction Name
    Block Poly_57_Administration Storey 2,    !- Zone Name
    ,                         !- Space Name
    Outdoors,                 !- Outside Boundary Condition
    ,                         !- Outside Boundary Condition Object
    SunExposed,               !- Sun Exposure
    WindExposed,              !- Wind Exposure
    autocalculate,            !- View Factor to Ground
    autocalculate,            !- Number of Vertices
    2.3905753248836845,       !- Vertex 1 Xcoordinate
    35.41556950751692,        !- Vertex 1 Ycoordinate
    9,                        !- Vertex 1 Zcoordinate
    2.3905753248836845,       !- Vertex 2 Xcoordinate
    35.41556950751692,        !- Vertex 2 Ycoordinate
    6,                        !- Vertex 2 Zcoordinate
    0,                        !- Vertex 3 Xcoordinate
    28.13269183132797,        !- Vertex 3 Ycoordinate
    6,                        !- Vertex 3 Zcoordinate
    0,                        !- Vertex 4 Xcoordinate
    28.13269183132797,        !- Vertex 4 Ycoordinate
    9;                        !- Vertex 4 Zcoordinate

BUILDINGSURFACE:DETAILED,
    Block Poly_57_Administration Storey 2 Wall 0004,    !- Name
    Wall,                     !- Surface Type
    HSCWZ_Public&Industrial_1995_ExtWall,    !- Construction Name
    Block Poly_57_Administration Storey 2,    !- Zone Name
    ,                         !- Space Name
    Outdoors,                 !- Outside Boundary Condition
    ,                         !- Outside Boundary Condition Object
    SunExposed,               !- Sun Exposure
    WindExposed,              !- Wind Exposure
    autocalculate,            !- View Factor to Ground
    autocalculate,            !- Number of Vertices
    0,                        !- Vertex 1 Xcoordinate
    28.13269183132797,        !- Vertex 1 Ycoordinate
    9,                        !- Vertex 1 Zcoordinate
    0,                        !- Vertex 2 Xcoordinate
    28.13269183132797,        !- Vertex 2 Ycoordinate
    6,                        !- Vertex 2 Zcoordinate
    0.7032068736152723,       !- Vertex 3 Xcoordinate
    24.13097620755434,        !- Vertex 3 Ycoordinate
    6,                        !- Vertex 3 Zcoordinate
    0.7032068736152723,       !- Vertex 4 Xcoordinate
    24.13097620755434,        !- Vertex 4 Ycoordinate
    9;                        !- Vertex 4 Zcoordinate

BUILDINGSURFACE:DETAILED,
    Block Poly_57_Administration Storey 2 Wall 0005,    !- Name
    Wall,                     !- Surface Type
    HSCWZ_Public&Industrial_1995_ExtWall,    !- Construction Name
    Block Poly_57_Administration Storey 2,    !- Zone Name
    ,                         !- Space Name
    Outdoors,                 !- Outside Boundary Condition
    ,                         !- Outside Boundary Condition Object
    SunExposed,               !- Sun Exposure
    WindExposed,              !- Wind Exposure
    autocalculate,            !- View Factor to Ground
    autocalculate,            !- Number of Vertices
    0.7032068736152723,       !- Vertex 1 Xcoordinate
    24.13097620755434,        !- Vertex 1 Ycoordinate
    9,                        !- Vertex 1 Zcoordinate
    0.7032068736152723,       !- Vertex 2 Xcoordinate
    24.13097620755434,        !- Vertex 2 Ycoordinate
    6,                        !- Vertex 2 Zcoordinate
    4.227517550752964,        !- Vertex 3 Xcoordinate
    17.75980935851112,        !- Vertex 3 Ycoordinate
    6,                        !- Vertex 3 Zcoordinate
    4.227517550752964,        !- Vertex 4 Xcoordinate
    17.75980935851112,        !- Vertex 4 Ycoordinate
    9;                        !- Vertex 4 Zcoordinate

BUILDINGSURFACE:DETAILED,
    Block Poly_57_Administration Storey 2 Wall 0006,    !- Name
    Wall,                     !- Surface Type
    HSCWZ_Public&Industrial_1995_ExtWall,    !- Construction Name
    Block Poly_57_Administration Storey 2,    !- Zone Name
    ,                         !- Space Name
    Outdoors,                 !- Outside Boundary Condition
    ,                         !- Outside Boundary Condition Object
    SunExposed,               !- Sun Exposure
    WindExposed,              !- Wind Exposure
    autocalculate,            !- View Factor to Ground
    autocalculate,            !- Number of Vertices
    4.227517550752964,        !- Vertex 1 Xcoordinate
    17.75980935851112,        !- Vertex 1 Ycoordinate
    9,                        !- Vertex 1 Zcoordinate
    4.227517550752964,        !- Vertex 2 Xcoordinate
    17.75980935851112,        !- Vertex 2 Ycoordinate
    6,                        !- Vertex 2 Zcoordinate
    11.168160954490304,       !- Vertex 3 Xcoordinate
    10.67363831680268,        !- Vertex 3 Ycoordinate
    6,                        !- Vertex 3 Zcoordinate
    11.168160954490304,       !- Vertex 4 Xcoordinate
    10.67363831680268,        !- Vertex 4 Ycoordinate
    9;                        !- Vertex 4 Zcoordinate

BUILDINGSURFACE:DETAILED,
    Block Poly_57_Administration Storey 2 Wall 0007,    !- Name
    Wall,                     !- Surface Type
    HSCWZ_Public&Industrial_1995_ExtWall,    !- Construction Name
    Block Poly_57_Administration Storey 2,    !- Zone Name
    ,                         !- Space Name
    Outdoors,                 !- Outside Boundary Condition
    ,                         !- Outside Boundary Condition Object
    SunExposed,               !- Sun Exposure
    WindExposed,              !- Wind Exposure
    autocalculate,            !- View Factor to Ground
    autocalculate,            !- Number of Vertices
    11.168160954490304,       !- Vertex 1 Xcoordinate
    10.67363831680268,        !- Vertex 1 Ycoordinate
    9,                        !- Vertex 1 Zcoordinate
    11.168160954490304,       !- Vertex 2 Xcoordinate
    10.67363831680268,        !- Vertex 2 Ycoordinate
    6,                        !- Vertex 2 Zcoordinate
    19.652476686926093,       !- Vertex 3 Xcoordinate
    5.00635452568531,         !- Vertex 3 Ycoordinate
    6,                        !- Vertex 3 Zcoordinate
    19.652476686926093,       !- Vertex 4 Xcoordinate
    5.00635452568531,         !- Vertex 4 Ycoordinate
    9;                        !- Vertex 4 Zcoordinate

BUILDINGSURFACE:DETAILED,
    Block Poly_57_Administration Storey 2 Wall 0008,    !- Name
    Wall,                     !- Surface Type
    HSCWZ_Public&Industrial_1995_ExtWall,    !- Construction Name
    Block Poly_57_Administration Storey 2,    !- Zone Name
    ,                         !- Space Name
    Outdoors,                 !- Outside Boundary Condition
    ,                         !- Outside Boundary Condition Object
    SunExposed,               !- Sun Exposure
    WindExposed,              !- Wind Exposure
    autocalculate,            !- View Factor to Ground
    autocalculate,            !- Number of Vertices
    19.652476686926093,       !- Vertex 1 Xcoordinate
    5.00635452568531,         !- Vertex 1 Ycoordinate
    9,                        !- Vertex 1 Zcoordinate
    19.652476686926093,       !- Vertex 2 Xcoordinate
    5.00635452568531,         !- Vertex 2 Ycoordinate
    6,                        !- Vertex 2 Zcoordinate
    27.698096323176287,       !- Vertex 3 Xcoordinate
    1.8955740747042,          !- Vertex 3 Ycoordinate
    6,                        !- Vertex 3 Zcoordinate
    27.698096323176287,       !- Vertex 4 Xcoordinate
    1.8955740747042,          !- Vertex 4 Ycoordinate
    9;                        !- Vertex 4 Zcoordinate

BUILDINGSURFACE:DETAILED,
    Block Poly_57_Administration Storey 2 Wall 0009,    !- Name
    Wall,                     !- Surface Type
    HSCWZ_Public&Industrial_1995_ExtWall,    !- Construction Name
    Block Poly_57_Administration Storey 2,    !- Zone Name
    ,                         !- Space Name
    Outdoors,                 !- Outside Boundary Condition
    ,                         !- Outside Boundary Condition Object
    SunExposed,               !- Sun Exposure
    WindExposed,              !- Wind Exposure
    autocalculate,            !- View Factor to Ground
    autocalculate,            !- Number of Vertices
    27.698096323176287,       !- Vertex 1 Xcoordinate
    1.8955740747042,          !- Vertex 1 Ycoordinate
    9,                        !- Vertex 1 Zcoordinate
    27.698096323176287,       !- Vertex 2 Xcoordinate
    1.8955740747042,          !- Vertex 2 Ycoordinate
    6,                        !- Vertex 2 Zcoordinate
    36.0469793662196,         !- Vertex 3 Xcoordinate
    0,                        !- Vertex 3 Ycoordinate
    6,                        !- Vertex 3 Zcoordinate
    36.0469793662196,         !- Vertex 4 Xcoordinate
    0,                        !- Vertex 4 Ycoordinate
    9;                        !- Vertex 4 Zcoordinate

BUILDINGSURFACE:DETAILED,
    Block Poly_57_Administration Storey 2 Wall 0010,    !- Name
    Wall,                     !- Surface Type
    HSCWZ_Public&Industrial_1995_ExtWall,    !- Construction Name
    Block Poly_57_Administration Storey 2,    !- Zone Name
    ,                         !- Space Name
    Outdoors,                 !- Outside Boundary Condition
    ,                         !- Outside Boundary Condition Object
    SunExposed,               !- Sun Exposure
    WindExposed,              !- Wind Exposure
    autocalculate,            !- View Factor to Ground
    autocalculate,            !- Number of Vertices
    36.0469793662196,         !- Vertex 1 Xcoordinate
    0,                        !- Vertex 1 Ycoordinate
    9,                        !- Vertex 1 Zcoordinate
    36.0469793662196,         !- Vertex 2 Xcoordinate
    0,                        !- Vertex 2 Ycoordinate
    6,                        !- Vertex 2 Zcoordinate
    43.10226554592373,        !- Vertex 3 Xcoordinate
    0.7842511385679245,       !- Vertex 3 Ycoordinate
    6,                        !- Vertex 3 Zcoordinate
    43.10226554592373,        !- Vertex 4 Xcoordinate
    0.7842511385679245,       !- Vertex 4 Ycoordinate
    9;                        !- Vertex 4 Zcoordinate

BUILDINGSURFACE:DETAILED,
    Block Poly_57_Administration Storey 2 Wall 0011,    !- Name
    Wall,                     !- Surface Type
    HSCWZ_Public&Industrial_1995_ExtWall,    !- Construction Name
    Block Poly_57_Administration Storey 2,    !- Zone Name
    ,                         !- Space Name
    Outdoors,                 !- Outside Boundary Condition
    ,                         !- Outside Boundary Condition Object
    SunExposed,               !- Sun Exposure
    WindExposed,              !- Wind Exposure
    autocalculate,            !- View Factor to Ground
    autocalculate,            !- Number of Vertices
    43.10226554592373,        !- Vertex 1 Xcoordinate
    0.7842511385679245,       !- Vertex 1 Ycoordinate
    9,                        !- Vertex 1 Zcoordinate
    43.10226554592373,        !- Vertex 2 Xcoordinate
    0.7842511385679245,       !- Vertex 2 Ycoordinate
    6,                        !- Vertex 2 Zcoordinate
    49.70754104084335,        !- Vertex 3 Xcoordinate
    3.3490470466203988,       !- Vertex 3 Ycoordinate
    6,                        !- Vertex 3 Zcoordinate
    49.70754104084335,        !- Vertex 4 Xcoordinate
    3.3490470466203988,       !- Vertex 4 Ycoordinate
    9;                        !- Vertex 4 Zcoordinate

BUILDINGSURFACE:DETAILED,
    Block Poly_57_Administration Storey 2 Wall 0012,    !- Name
    Wall,                     !- Surface Type
    HSCWZ_Public&Industrial_1995_ExtWall,    !- Construction Name
    Block Poly_57_Administration Storey 2,    !- Zone Name
    ,                         !- Space Name
    Outdoors,                 !- Outside Boundary Condition
    ,                         !- Outside Boundary Condition Object
    SunExposed,               !- Sun Exposure
    WindExposed,              !- Wind Exposure
    autocalculate,            !- View Factor to Ground
    autocalculate,            !- Number of Vertices
    49.70754104084335,        !- Vertex 1 Xcoordinate
    3.3490470466203988,       !- Vertex 1 Ycoordinate
    9,                        !- Vertex 1 Zcoordinate
    49.70754104084335,        !- Vertex 2 Xcoordinate
    3.3490470466203988,       !- Vertex 2 Ycoordinate
    6,                        !- Vertex 2 Zcoordinate
    54.4465949399164,         !- Vertex 3 Xcoordinate
    8.49112764140591,         !- Vertex 3 Ycoordinate
    6,                        !- Vertex 3 Zcoordinate
    54.4465949399164,         !- Vertex 4 Xcoordinate
    8.49112764140591,         !- Vertex 4 Ycoordinate
    9;                        !- Vertex 4 Zcoordinate

BUILDINGSURFACE:DETAILED,
    Block Poly_57_Administration Storey 2 Wall 0013,    !- Name
    Wall,                     !- Surface Type
    HSCWZ_Public&Industrial_1995_ExtWall,    !- Construction Name
    Block Poly_57_Administration Storey 2,    !- Zone Name
    ,                         !- Space Name
    Outdoors,                 !- Outside Boundary Condition
    ,                         !- Outside Boundary Condition Object
    SunExposed,               !- Sun Exposure
    WindExposed,              !- Wind Exposure
    autocalculate,            !- View Factor to Ground
    autocalculate,            !- Number of Vertices
    54.4465949399164,         !- Vertex 1 Xcoordinate
    8.49112764140591,         !- Vertex 1 Ycoordinate
    9,                        !- Vertex 1 Zcoordinate
    54.4465949399164,         !- Vertex 2 Xcoordinate
    8.49112764140591,         !- Vertex 2 Ycoordinate
    6,                        !- Vertex 2 Zcoordinate
    58.4808002486825,         !- Vertex 3 Xcoordinate
    17.524070274084806,       !- Vertex 3 Ycoordinate
    6,                        !- Vertex 3 Zcoordinate
    58.4808002486825,         !- Vertex 4 Xcoordinate
    17.524070274084806,       !- Vertex 4 Ycoordinate
    9;                        !- Vertex 4 Zcoordinate

BUILDINGSURFACE:DETAILED,
    Block Poly_57_Administration Storey 2 Wall 0014,    !- Name
    Wall,                     !- Surface Type
    HSCWZ_Public&Industrial_1995_ExtWall,    !- Construction Name
    Block Poly_57_Administration Storey 2,    !- Zone Name
    ,                         !- Space Name
    Outdoors,                 !- Outside Boundary Condition
    ,                         !- Outside Boundary Condition Object
    SunExposed,               !- Sun Exposure
    WindExposed,              !- Wind Exposure
    autocalculate,            !- View Factor to Ground
    autocalculate,            !- Number of Vertices
    58.4808002486825,         !- Vertex 1 Xcoordinate
    17.524070274084806,       !- Vertex 1 Ycoordinate
    9,                        !- Vertex 1 Zcoordinate
    58.4808002486825,         !- Vertex 2 Xcoordinate
    17.524070274084806,       !- Vertex 2 Ycoordinate
    6,                        !- Vertex 2 Zcoordinate
    57.86473142134491,        !- Vertex 3 Xcoordinate
    27.51171887619421,        !- Vertex 3 Ycoordinate
    6,                        !- Vertex 3 Zcoordinate
    57.86473142134491,        !- Vertex 4 Xcoordinate
    27.51171887619421,        !- Vertex 4 Ycoordinate
    9;                        !- Vertex 4 Zcoordinate

BUILDINGSURFACE:DETAILED,
    Block Poly_57_Administration Storey 2 Wall 0015,    !- Name
    Wall,                     !- Surface Type
    HSCWZ_Public&Industrial_1995_ExtWall,    !- Construction Name
    Block Poly_57_Administration Storey 2,    !- Zone Name
    ,                         !- Space Name
    Outdoors,                 !- Outside Boundary Condition
    ,                         !- Outside Boundary Condition Object
    SunExposed,               !- Sun Exposure
    WindExposed,              !- Wind Exposure
    autocalculate,            !- View Factor to Ground
    autocalculate,            !- Number of Vertices
    57.86473142134491,        !- Vertex 1 Xcoordinate
    27.51171887619421,        !- Vertex 1 Ycoordinate
    9,                        !- Vertex 1 Zcoordinate
    57.86473142134491,        !- Vertex 2 Xcoordinate
    27.51171887619421,        !- Vertex 2 Ycoordinate
    6,                        !- Vertex 2 Zcoordinate
    55.88727457728237,        !- Vertex 3 Xcoordinate
    35.523455287795514,       !- Vertex 3 Ycoordinate
    6,                        !- Vertex 3 Zcoordinate
    55.88727457728237,        !- Vertex 4 Xcoordinate
    35.523455287795514,       !- Vertex 4 Ycoordinate
    9;                        !- Vertex 4 Zcoordinate

BUILDINGSURFACE:DETAILED,
    Block Poly_57_Administration Storey 2 Wall 0016,    !- Name
    Wall,                     !- Surface Type
    HSCWZ_Public&Industrial_1995_ExtWall,    !- Construction Name
    Block Poly_57_Administration Storey 2,    !- Zone Name
    ,                         !- Space Name
    Outdoors,                 !- Outside Boundary Condition
    ,                         !- Outside Boundary Condition Object
    SunExposed,               !- Sun Exposure
    WindExposed,              !- Wind Exposure
    autocalculate,            !- View Factor to Ground
    autocalculate,            !- Number of Vertices
    55.88727457728237,        !- Vertex 1 Xcoordinate
    35.523455287795514,       !- Vertex 1 Ycoordinate
    9,                        !- Vertex 1 Zcoordinate
    55.88727457728237,        !- Vertex 2 Xcoordinate
    35.523455287795514,       !- Vertex 2 Ycoordinate
    6,                        !- Vertex 2 Zcoordinate
    49.29345961642685,        !- Vertex 3 Xcoordinate
    46.81776582496241,        !- Vertex 3 Ycoordinate
    6,                        !- Vertex 3 Zcoordinate
    49.29345961642685,        !- Vertex 4 Xcoordinate
    46.81776582496241,        !- Vertex 4 Ycoordinate
    9;                        !- Vertex 4 Zcoordinate

BUILDINGSURFACE:DETAILED,
    Block Poly_57_Administration Storey 2 Wall 0017,    !- Name
    Wall,                     !- Surface Type
    HSCWZ_Public&Industrial_1995_ExtWall,    !- Construction Name
    Block Poly_57_Administration Storey 2,    !- Zone Name
    ,                         !- Space Name
    Outdoors,                 !- Outside Boundary Condition
    ,                         !- Outside Boundary Condition Object
    SunExposed,               !- Sun Exposure
    WindExposed,              !- Wind Exposure
    autocalculate,            !- View Factor to Ground
    autocalculate,            !- Number of Vertices
    49.29345961642685,        !- Vertex 1 Xcoordinate
    46.81776582496241,        !- Vertex 1 Ycoordinate
    9,                        !- Vertex 1 Zcoordinate
    49.29345961642685,        !- Vertex 2 Xcoordinate
    46.81776582496241,        !- Vertex 2 Ycoordinate
    6,                        !- Vertex 2 Zcoordinate
    45.172305399086326,       !- Vertex 3 Xcoordinate
    51.42362080840394,        !- Vertex 3 Ycoordinate
    6,                        !- Vertex 3 Zcoordinate
    45.172305399086326,       !- Vertex 4 Xcoordinate
    51.42362080840394,        !- Vertex 4 Ycoordinate
    9;                        !- Vertex 4 Zcoordinate

BUILDINGSURFACE:DETAILED,
    Block Poly_57_Administration Storey 2 Wall 0018,    !- Name
    Wall,                     !- Surface Type
    HSCWZ_Public&Industrial_1995_ExtWall,    !- Construction Name
    Block Poly_57_Administration Storey 2,    !- Zone Name
    ,                         !- Space Name
    Outdoors,                 !- Outside Boundary Condition
    ,                         !- Outside Boundary Condition Object
    SunExposed,               !- Sun Exposure
    WindExposed,              !- Wind Exposure
    autocalculate,            !- View Factor to Ground
    autocalculate,            !- Number of Vertices
    45.172305399086326,       !- Vertex 1 Xcoordinate
    51.42362080840394,        !- Vertex 1 Ycoordinate
    9,                        !- Vertex 1 Zcoordinate
    45.172305399086326,       !- Vertex 2 Xcoordinate
    51.42362080840394,        !- Vertex 2 Ycoordinate
    6,                        !- Vertex 2 Zcoordinate
    36.65250111126807,        !- Vertex 3 Xcoordinate
    54.65216964390129,        !- Vertex 3 Ycoordinate
    6,                        !- Vertex 3 Zcoordinate
    36.65250111126807,        !- Vertex 4 Xcoordinate
    54.65216964390129,        !- Vertex 4 Ycoordinate
    9;                        !- Vertex 4 Zcoordinate

BUILDINGSURFACE:DETAILED,
    Block Poly_57_Administration Storey 2 Wall 0019,    !- Name
    Wall,                     !- Surface Type
    HSCWZ_Public&Industrial_1995_ExtWall,    !- Construction Name
    Block Poly_57_Administration Storey 2,    !- Zone Name
    ,                         !- Space Name
    Outdoors,                 !- Outside Boundary Condition
    ,                         !- Outside Boundary Condition Object
    SunExposed,               !- Sun Exposure
    WindExposed,              !- Wind Exposure
    autocalculate,            !- View Factor to Ground
    autocalculate,            !- Number of Vertices
    36.65250111126807,        !- Vertex 1 Xcoordinate
    54.65216964390129,        !- Vertex 1 Ycoordinate
    9,                        !- Vertex 1 Zcoordinate
    36.65250111126807,        !- Vertex 2 Xcoordinate
    54.65216964390129,        !- Vertex 2 Ycoordinate
    6,                        !- Vertex 2 Zcoordinate
    29.605322141665965,       !- Vertex 3 Xcoordinate
    54.42217774409801,        !- Vertex 3 Ycoordinate
    6,                        !- Vertex 3 Zcoordinate
    29.605322141665965,       !- Vertex 4 Xcoordinate
    54.42217774409801,        !- Vertex 4 Ycoordinate
    9;                        !- Vertex 4 Zcoordinate

BUILDINGSURFACE:DETAILED,
    Block Poly_57_Administration Storey 2 Wall 0020,    !- Name
    Wall,                     !- Surface Type
    HSCWZ_Public&Industrial_1995_ExtWall,    !- Construction Name
    Block Poly_57_Administration Storey 2,    !- Zone Name
    ,                         !- Space Name
    Outdoors,                 !- Outside Boundary Condition
    ,                         !- Outside Boundary Condition Object
    SunExposed,               !- Sun Exposure
    WindExposed,              !- Wind Exposure
    autocalculate,            !- View Factor to Ground
    autocalculate,            !- Number of Vertices
    29.605322141665965,       !- Vertex 1 Xcoordinate
    54.42217774409801,        !- Vertex 1 Ycoordinate
    9,                        !- Vertex 1 Zcoordinate
    29.605322141665965,       !- Vertex 2 Xcoordinate
    54.42217774409801,        !- Vertex 2 Ycoordinate
    6,                        !- Vertex 2 Zcoordinate
    20.901560825121123,       !- Vertex 3 Xcoordinate
    51.55533633520827,        !- Vertex 3 Ycoordinate
    6,                        !- Vertex 3 Zcoordinate
    20.901560825121123,       !- Vertex 4 Xcoordinate
    51.55533633520827,        !- Vertex 4 Ycoordinate
    9;                        !- Vertex 4 Zcoordinate

BUILDINGSURFACE:DETAILED,
    Block Poly_57_Administration Storey 2 Wall 0021,    !- Name
    Wall,                     !- Surface Type
    HSCWZ_Public&Industrial_1995_ExtWall,    !- Construction Name
    Block Poly_57_Administration Storey 2,    !- Zone Name
    ,                         !- Space Name
    Outdoors,                 !- Outside Boundary Condition
    ,                         !- Outside Boundary Condition Object
    SunExposed,               !- Sun Exposure
    WindExposed,              !- Wind Exposure
    autocalculate,            !- View Factor to Ground
    autocalculate,            !- Number of Vertices
    20.901560825121123,       !- Vertex 1 Xcoordinate
    51.55533633520827,        !- Vertex 1 Ycoordinate
    9,                        !- Vertex 1 Zcoordinate
    20.901560825121123,       !- Vertex 2 Xcoordinate
    51.55533633520827,        !- Vertex 2 Ycoordinate
    6,                        !- Vertex 2 Zcoordinate
    9.570166039920878,        !- Vertex 3 Xcoordinate
    44.73530222894624,        !- Vertex 3 Ycoordinate
    6,                        !- Vertex 3 Zcoordinate
    9.570166039920878,        !- Vertex 4 Xcoordinate
    44.73530222894624,        !- Vertex 4 Ycoordinate
    9;                        !- Vertex 4 Zcoordinate

BUILDINGSURFACE:DETAILED,
    Block Poly_57_Administration Storey 3 Wall 0001,    !- Name
    Wall,                     !- Surface Type
    HSCWZ_Public&Industrial_1995_ExtWall,    !- Construction Name
    Block Poly_57_Administration Storey 3,    !- Zone Name
    ,                         !- Space Name
    Outdoors,                 !- Outside Boundary Condition
    ,                         !- Outside Boundary Condition Object
    SunExposed,               !- Sun Exposure
    WindExposed,              !- Wind Exposure
    autocalculate,            !- View Factor to Ground
    autocalculate,            !- Number of Vertices
    9.570166039920878,        !- Vertex 1 Xcoordinate
    44.73530222894624,        !- Vertex 1 Ycoordinate
    12,                       !- Vertex 1 Zcoordinate
    9.570166039920878,        !- Vertex 2 Xcoordinate
    44.73530222894624,        !- Vertex 2 Ycoordinate
    9,                        !- Vertex 2 Zcoordinate
    5.615043988102116,        !- Vertex 3 Xcoordinate
    41.1340618673712,         !- Vertex 3 Ycoordinate
    9,                        !- Vertex 3 Zcoordinate
    5.615043988102116,        !- Vertex 4 Xcoordinate
    41.1340618673712,         !- Vertex 4 Ycoordinate
    12;                       !- Vertex 4 Zcoordinate

BUILDINGSURFACE:DETAILED,
    Block Poly_57_Administration Storey 3 Wall 0002,    !- Name
    Wall,                     !- Surface Type
    HSCWZ_Public&Industrial_1995_ExtWall,    !- Construction Name
    Block Poly_57_Administration Storey 3,    !- Zone Name
    ,                         !- Space Name
    Outdoors,                 !- Outside Boundary Condition
    ,                         !- Outside Boundary Condition Object
    SunExposed,               !- Sun Exposure
    WindExposed,              !- Wind Exposure
    autocalculate,            !- View Factor to Ground
    autocalculate,            !- Number of Vertices
    5.615043988102116,        !- Vertex 1 Xcoordinate
    41.1340618673712,         !- Vertex 1 Ycoordinate
    12,                       !- Vertex 1 Zcoordinate
    5.615043988102116,        !- Vertex 2 Xcoordinate
    41.1340618673712,         !- Vertex 2 Ycoordinate
    9,                        !- Vertex 2 Zcoordinate
    2.3905753248836845,       !- Vertex 3 Xcoordinate
    35.41556950751692,        !- Vertex 3 Ycoordinate
    9,                        !- Vertex 3 Zcoordinate
    2.3905753248836845,       !- Vertex 4 Xcoordinate
    35.41556950751692,        !- Vertex 4 Ycoordinate
    12;                       !- Vertex 4 Zcoordinate

BUILDINGSURFACE:DETAILED,
    Block Poly_57_Administration Storey 3 Wall 0003,    !- Name
    Wall,                     !- Surface Type
    HSCWZ_Public&Industrial_1995_ExtWall,    !- Construction Name
    Block Poly_57_Administration Storey 3,    !- Zone Name
    ,                         !- Space Name
    Outdoors,                 !- Outside Boundary Condition
    ,                         !- Outside Boundary Condition Object
    SunExposed,               !- Sun Exposure
    WindExposed,              !- Wind Exposure
    autocalculate,            !- View Factor to Ground
    autocalculate,            !- Number of Vertices
    2.3905753248836845,       !- Vertex 1 Xcoordinate
    35.41556950751692,        !- Vertex 1 Ycoordinate
    12,                       !- Vertex 1 Zcoordinate
    2.3905753248836845,       !- Vertex 2 Xcoordinate
    35.41556950751692,        !- Vertex 2 Ycoordinate
    9,                        !- Vertex 2 Zcoordinate
    0,                        !- Vertex 3 Xcoordinate
    28.13269183132797,        !- Vertex 3 Ycoordinate
    9,                        !- Vertex 3 Zcoordinate
    0,                        !- Vertex 4 Xcoordinate
    28.13269183132797,        !- Vertex 4 Ycoordinate
    12;                       !- Vertex 4 Zcoordinate

BUILDINGSURFACE:DETAILED,
    Block Poly_57_Administration Storey 3 Wall 0004,    !- Name
    Wall,                     !- Surface Type
    HSCWZ_Public&Industrial_1995_ExtWall,    !- Construction Name
    Block Poly_57_Administration Storey 3,    !- Zone Name
    ,                         !- Space Name
    Outdoors,                 !- Outside Boundary Condition
    ,                         !- Outside Boundary Condition Object
    SunExposed,               !- Sun Exposure
    WindExposed,              !- Wind Exposure
    autocalculate,            !- View Factor to Ground
    autocalculate,            !- Number of Vertices
    0,                        !- Vertex 1 Xcoordinate
    28.13269183132797,        !- Vertex 1 Ycoordinate
    12,                       !- Vertex 1 Zcoordinate
    0,                        !- Vertex 2 Xcoordinate
    28.13269183132797,        !- Vertex 2 Ycoordinate
    9,                        !- Vertex 2 Zcoordinate
    0.7032068736152723,       !- Vertex 3 Xcoordinate
    24.13097620755434,        !- Vertex 3 Ycoordinate
    9,                        !- Vertex 3 Zcoordinate
    0.7032068736152723,       !- Vertex 4 Xcoordinate
    24.13097620755434,        !- Vertex 4 Ycoordinate
    12;                       !- Vertex 4 Zcoordinate

BUILDINGSURFACE:DETAILED,
    Block Poly_57_Administration Storey 3 Wall 0005,    !- Name
    Wall,                     !- Surface Type
    HSCWZ_Public&Industrial_1995_ExtWall,    !- Construction Name
    Block Poly_57_Administration Storey 3,    !- Zone Name
    ,                         !- Space Name
    Outdoors,                 !- Outside Boundary Condition
    ,                         !- Outside Boundary Condition Object
    SunExposed,               !- Sun Exposure
    WindExposed,              !- Wind Exposure
    autocalculate,            !- View Factor to Ground
    autocalculate,            !- Number of Vertices
    0.7032068736152723,       !- Vertex 1 Xcoordinate
    24.13097620755434,        !- Vertex 1 Ycoordinate
    12,                       !- Vertex 1 Zcoordinate
    0.7032068736152723,       !- Vertex 2 Xcoordinate
    24.13097620755434,        !- Vertex 2 Ycoordinate
    9,                        !- Vertex 2 Zcoordinate
    4.227517550752964,        !- Vertex 3 Xcoordinate
    17.75980935851112,        !- Vertex 3 Ycoordinate
    9,                        !- Vertex 3 Zcoordinate
    4.227517550752964,        !- Vertex 4 Xcoordinate
    17.75980935851112,        !- Vertex 4 Ycoordinate
    12;                       !- Vertex 4 Zcoordinate

BUILDINGSURFACE:DETAILED,
    Block Poly_57_Administration Storey 3 Wall 0006,    !- Name
    Wall,                     !- Surface Type
    HSCWZ_Public&Industrial_1995_ExtWall,    !- Construction Name
    Block Poly_57_Administration Storey 3,    !- Zone Name
    ,                         !- Space Name
    Outdoors,                 !- Outside Boundary Condition
    ,                         !- Outside Boundary Condition Object
    SunExposed,               !- Sun Exposure
    WindExposed,              !- Wind Exposure
    autocalculate,            !- View Factor to Ground
    autocalculate,            !- Number of Vertices
    4.227517550752964,        !- Vertex 1 Xcoordinate
    17.75980935851112,        !- Vertex 1 Ycoordinate
    12,                       !- Vertex 1 Zcoordinate
    4.227517550752964,        !- Vertex 2 Xcoordinate
    17.75980935851112,        !- Vertex 2 Ycoordinate
    9,                        !- Vertex 2 Zcoordinate
    11.168160954490304,       !- Vertex 3 Xcoordinate
    10.67363831680268,        !- Vertex 3 Ycoordinate
    9,                        !- Vertex 3 Zcoordinate
    11.168160954490304,       !- Vertex 4 Xcoordinate
    10.67363831680268,        !- Vertex 4 Ycoordinate
    12;                       !- Vertex 4 Zcoordinate

BUILDINGSURFACE:DETAILED,
    Block Poly_57_Administration Storey 3 Wall 0007,    !- Name
    Wall,                     !- Surface Type
    HSCWZ_Public&Industrial_1995_ExtWall,    !- Construction Name
    Block Poly_57_Administration Storey 3,    !- Zone Name
    ,                         !- Space Name
    Outdoors,                 !- Outside Boundary Condition
    ,                         !- Outside Boundary Condition Object
    SunExposed,               !- Sun Exposure
    WindExposed,              !- Wind Exposure
    autocalculate,            !- View Factor to Ground
    autocalculate,            !- Number of Vertices
    11.168160954490304,       !- Vertex 1 Xcoordinate
    10.67363831680268,        !- Vertex 1 Ycoordinate
    12,                       !- Vertex 1 Zcoordinate
    11.168160954490304,       !- Vertex 2 Xcoordinate
    10.67363831680268,        !- Vertex 2 Ycoordinate
    9,                        !- Vertex 2 Zcoordinate
    19.652476686926093,       !- Vertex 3 Xcoordinate
    5.00635452568531,         !- Vertex 3 Ycoordinate
    9,                        !- Vertex 3 Zcoordinate
    19.652476686926093,       !- Vertex 4 Xcoordinate
    5.00635452568531,         !- Vertex 4 Ycoordinate
    12;                       !- Vertex 4 Zcoordinate

BUILDINGSURFACE:DETAILED,
    Block Poly_57_Administration Storey 3 Wall 0008,    !- Name
    Wall,                     !- Surface Type
    HSCWZ_Public&Industrial_1995_ExtWall,    !- Construction Name
    Block Poly_57_Administration Storey 3,    !- Zone Name
    ,                         !- Space Name
    Outdoors,                 !- Outside Boundary Condition
    ,                         !- Outside Boundary Condition Object
    SunExposed,               !- Sun Exposure
    WindExposed,              !- Wind Exposure
    autocalculate,            !- View Factor to Ground
    autocalculate,            !- Number of Vertices
    19.652476686926093,       !- Vertex 1 Xcoordinate
    5.00635452568531,         !- Vertex 1 Ycoordinate
    12,                       !- Vertex 1 Zcoordinate
    19.652476686926093,       !- Vertex 2 Xcoordinate
    5.00635452568531,         !- Vertex 2 Ycoordinate
    9,                        !- Vertex 2 Zcoordinate
    27.698096323176287,       !- Vertex 3 Xcoordinate
    1.8955740747042,          !- Vertex 3 Ycoordinate
    9,                        !- Vertex 3 Zcoordinate
    27.698096323176287,       !- Vertex 4 Xcoordinate
    1.8955740747042,          !- Vertex 4 Ycoordinate
    12;                       !- Vertex 4 Zcoordinate

BUILDINGSURFACE:DETAILED,
    Block Poly_57_Administration Storey 3 Wall 0009,    !- Name
    Wall,                     !- Surface Type
    HSCWZ_Public&Industrial_1995_ExtWall,    !- Construction Name
    Block Poly_57_Administration Storey 3,    !- Zone Name
    ,                         !- Space Name
    Outdoors,                 !- Outside Boundary Condition
    ,                         !- Outside Boundary Condition Object
    SunExposed,               !- Sun Exposure
    WindExposed,              !- Wind Exposure
    autocalculate,            !- View Factor to Ground
    autocalculate,            !- Number of Vertices
    27.698096323176287,       !- Vertex 1 Xcoordinate
    1.8955740747042,          !- Vertex 1 Ycoordinate
    12,                       !- Vertex 1 Zcoordinate
    27.698096323176287,       !- Vertex 2 Xcoordinate
    1.8955740747042,          !- Vertex 2 Ycoordinate
    9,                        !- Vertex 2 Zcoordinate
    36.0469793662196,         !- Vertex 3 Xcoordinate
    0,                        !- Vertex 3 Ycoordinate
    9,                        !- Vertex 3 Zcoordinate
    36.0469793662196,         !- Vertex 4 Xcoordinate
    0,                        !- Vertex 4 Ycoordinate
    12;                       !- Vertex 4 Zcoordinate

BUILDINGSURFACE:DETAILED,
    Block Poly_57_Administration Storey 3 Wall 0010,    !- Name
    Wall,                     !- Surface Type
    HSCWZ_Public&Industrial_1995_ExtWall,    !- Construction Name
    Block Poly_57_Administration Storey 3,    !- Zone Name
    ,                         !- Space Name
    Outdoors,                 !- Outside Boundary Condition
    ,                         !- Outside Boundary Condition Object
    SunExposed,               !- Sun Exposure
    WindExposed,              !- Wind Exposure
    autocalculate,            !- View Factor to Ground
    autocalculate,            !- Number of Vertices
    36.0469793662196,         !- Vertex 1 Xcoordinate
    0,                        !- Vertex 1 Ycoordinate
    12,                       !- Vertex 1 Zcoordinate
    36.0469793662196,         !- Vertex 2 Xcoordinate
    0,                        !- Vertex 2 Ycoordinate
    9,                        !- Vertex 2 Zcoordinate
    43.10226554592373,        !- Vertex 3 Xcoordinate
    0.7842511385679245,       !- Vertex 3 Ycoordinate
    9,                        !- Vertex 3 Zcoordinate
    43.10226554592373,        !- Vertex 4 Xcoordinate
    0.7842511385679245,       !- Vertex 4 Ycoordinate
    12;                       !- Vertex 4 Zcoordinate

BUILDINGSURFACE:DETAILED,
    Block Poly_57_Administration Storey 3 Wall 0011,    !- Name
    Wall,                     !- Surface Type
    HSCWZ_Public&Industrial_1995_ExtWall,    !- Construction Name
    Block Poly_57_Administration Storey 3,    !- Zone Name
    ,                         !- Space Name
    Outdoors,                 !- Outside Boundary Condition
    ,                         !- Outside Boundary Condition Object
    SunExposed,               !- Sun Exposure
    WindExposed,              !- Wind Exposure
    autocalculate,            !- View Factor to Ground
    autocalculate,            !- Number of Vertices
    43.10226554592373,        !- Vertex 1 Xcoordinate
    0.7842511385679245,       !- Vertex 1 Ycoordinate
    12,                       !- Vertex 1 Zcoordinate
    43.10226554592373,        !- Vertex 2 Xcoordinate
    0.7842511385679245,       !- Vertex 2 Ycoordinate
    9,                        !- Vertex 2 Zcoordinate
    49.70754104084335,        !- Vertex 3 Xcoordinate
    3.3490470466203988,       !- Vertex 3 Ycoordinate
    9,                        !- Vertex 3 Zcoordinate
    49.70754104084335,        !- Vertex 4 Xcoordinate
    3.3490470466203988,       !- Vertex 4 Ycoordinate
    12;                       !- Vertex 4 Zcoordinate

BUILDINGSURFACE:DETAILED,
    Block Poly_57_Administration Storey 3 Wall 0012,    !- Name
    Wall,                     !- Surface Type
    HSCWZ_Public&Industrial_1995_ExtWall,    !- Construction Name
    Block Poly_57_Administration Storey 3,    !- Zone Name
    ,                         !- Space Name
    Outdoors,                 !- Outside Boundary Condition
    ,                         !- Outside Boundary Condition Object
    SunExposed,               !- Sun Exposure
    WindExposed,              !- Wind Exposure
    autocalculate,            !- View Factor to Ground
    autocalculate,            !- Number of Vertices
    49.70754104084335,        !- Vertex 1 Xcoordinate
    3.3490470466203988,       !- Vertex 1 Ycoordinate
    12,                       !- Vertex 1 Zcoordinate
    49.70754104084335,        !- Vertex 2 Xcoordinate
    3.3490470466203988,       !- Vertex 2 Ycoordinate
    9,                        !- Vertex 2 Zcoordinate
    54.4465949399164,         !- Vertex 3 Xcoordinate
    8.49112764140591,         !- Vertex 3 Ycoordinate
    9,                        !- Vertex 3 Zcoordinate
    54.4465949399164,         !- Vertex 4 Xcoordinate
    8.49112764140591,         !- Vertex 4 Ycoordinate
    12;                       !- Vertex 4 Zcoordinate

BUILDINGSURFACE:DETAILED,
    Block Poly_57_Administration Storey 3 Wall 0013,    !- Name
    Wall,                     !- Surface Type
    HSCWZ_Public&Industrial_1995_ExtWall,    !- Construction Name
    Block Poly_57_Administration Storey 3,    !- Zone Name
    ,                         !- Space Name
    Outdoors,                 !- Outside Boundary Condition
    ,                         !- Outside Boundary Condition Object
    SunExposed,               !- Sun Exposure
    WindExposed,              !- Wind Exposure
    autocalculate,            !- View Factor to Ground
    autocalculate,            !- Number of Vertices
    54.4465949399164,         !- Vertex 1 Xcoordinate
    8.49112764140591,         !- Vertex 1 Ycoordinate
    12,                       !- Vertex 1 Zcoordinate
    54.4465949399164,         !- Vertex 2 Xcoordinate
    8.49112764140591,         !- Vertex 2 Ycoordinate
    9,                        !- Vertex 2 Zcoordinate
    58.4808002486825,         !- Vertex 3 Xcoordinate
    17.524070274084806,       !- Vertex 3 Ycoordinate
    9,                        !- Vertex 3 Zcoordinate
    58.4808002486825,         !- Vertex 4 Xcoordinate
    17.524070274084806,       !- Vertex 4 Ycoordinate
    12;                       !- Vertex 4 Zcoordinate

BUILDINGSURFACE:DETAILED,
    Block Poly_57_Administration Storey 3 Wall 0014,    !- Name
    Wall,                     !- Surface Type
    HSCWZ_Public&Industrial_1995_ExtWall,    !- Construction Name
    Block Poly_57_Administration Storey 3,    !- Zone Name
    ,                         !- Space Name
    Outdoors,                 !- Outside Boundary Condition
    ,                         !- Outside Boundary Condition Object
    SunExposed,               !- Sun Exposure
    WindExposed,              !- Wind Exposure
    autocalculate,            !- View Factor to Ground
    autocalculate,            !- Number of Vertices
    58.4808002486825,         !- Vertex 1 Xcoordinate
    17.524070274084806,       !- Vertex 1 Ycoordinate
    12,                       !- Vertex 1 Zcoordinate
    58.4808002486825,         !- Vertex 2 Xcoordinate
    17.524070274084806,       !- Vertex 2 Ycoordinate
    9,                        !- Vertex 2 Zcoordinate
    57.86473142134491,        !- Vertex 3 Xcoordinate
    27.51171887619421,        !- Vertex 3 Ycoordinate
    9,                        !- Vertex 3 Zcoordinate
    57.86473142134491,        !- Vertex 4 Xcoordinate
    27.51171887619421,        !- Vertex 4 Ycoordinate
    12;                       !- Vertex 4 Zcoordinate

BUILDINGSURFACE:DETAILED,
    Block Poly_57_Administration Storey 3 Wall 0015,    !- Name
    Wall,                     !- Surface Type
    HSCWZ_Public&Industrial_1995_ExtWall,    !- Construction Name
    Block Poly_57_Administration Storey 3,    !- Zone Name
    ,                         !- Space Name
    Outdoors,                 !- Outside Boundary Condition
    ,                         !- Outside Boundary Condition Object
    SunExposed,               !- Sun Exposure
    WindExposed,              !- Wind Exposure
    autocalculate,            !- View Factor to Ground
    autocalculate,            !- Number of Vertices
    57.86473142134491,        !- Vertex 1 Xcoordinate
    27.51171887619421,        !- Vertex 1 Ycoordinate
    12,                       !- Vertex 1 Zcoordinate
    57.86473142134491,        !- Vertex 2 Xcoordinate
    27.51171887619421,        !- Vertex 2 Ycoordinate
    9,                        !- Vertex 2 Zcoordinate
    55.88727457728237,        !- Vertex 3 Xcoordinate
    35.523455287795514,       !- Vertex 3 Ycoordinate
    9,                        !- Vertex 3 Zcoordinate
    55.88727457728237,        !- Vertex 4 Xcoordinate
    35.523455287795514,       !- Vertex 4 Ycoordinate
    12;                       !- Vertex 4 Zcoordinate

BUILDINGSURFACE:DETAILED,
    Block Poly_57_Administration Storey 3 Wall 0016,    !- Name
    Wall,                     !- Surface Type
    HSCWZ_Public&Industrial_1995_ExtWall,    !- Construction Name
    Block Poly_57_Administration Storey 3,    !- Zone Name
    ,                         !- Space Name
    Outdoors,                 !- Outside Boundary Condition
    ,                         !- Outside Boundary Condition Object
    SunExposed,               !- Sun Exposure
    WindExposed,              !- Wind Exposure
    autocalculate,            !- View Factor to Ground
    autocalculate,            !- Number of Vertices
    55.88727457728237,        !- Vertex 1 Xcoordinate
    35.523455287795514,       !- Vertex 1 Ycoordinate
    12,                       !- Vertex 1 Zcoordinate
    55.88727457728237,        !- Vertex 2 Xcoordinate
    35.523455287795514,       !- Vertex 2 Ycoordinate
    9,                        !- Vertex 2 Zcoordinate
    49.29345961642685,        !- Vertex 3 Xcoordinate
    46.81776582496241,        !- Vertex 3 Ycoordinate
    9,                        !- Vertex 3 Zcoordinate
    49.29345961642685,        !- Vertex 4 Xcoordinate
    46.81776582496241,        !- Vertex 4 Ycoordinate
    12;                       !- Vertex 4 Zcoordinate

BUILDINGSURFACE:DETAILED,
    Block Poly_57_Administration Storey 3 Wall 0017,    !- Name
    Wall,                     !- Surface Type
    HSCWZ_Public&Industrial_1995_ExtWall,    !- Construction Name
    Block Poly_57_Administration Storey 3,    !- Zone Name
    ,                         !- Space Name
    Outdoors,                 !- Outside Boundary Condition
    ,                         !- Outside Boundary Condition Object
    SunExposed,               !- Sun Exposure
    WindExposed,              !- Wind Exposure
    autocalculate,            !- View Factor to Ground
    autocalculate,            !- Number of Vertices
    49.29345961642685,        !- Vertex 1 Xcoordinate
    46.81776582496241,        !- Vertex 1 Ycoordinate
    12,                       !- Vertex 1 Zcoordinate
    49.29345961642685,        !- Vertex 2 Xcoordinate
    46.81776582496241,        !- Vertex 2 Ycoordinate
    9,                        !- Vertex 2 Zcoordinate
    45.172305399086326,       !- Vertex 3 Xcoordinate
    51.42362080840394,        !- Vertex 3 Ycoordinate
    9,                        !- Vertex 3 Zcoordinate
    45.172305399086326,       !- Vertex 4 Xcoordinate
    51.42362080840394,        !- Vertex 4 Ycoordinate
    12;                       !- Vertex 4 Zcoordinate

BUILDINGSURFACE:DETAILED,
    Block Poly_57_Administration Storey 3 Wall 0018,    !- Name
    Wall,                     !- Surface Type
    HSCWZ_Public&Industrial_1995_ExtWall,    !- Construction Name
    Block Poly_57_Administration Storey 3,    !- Zone Name
    ,                         !- Space Name
    Outdoors,                 !- Outside Boundary Condition
    ,                         !- Outside Boundary Condition Object
    SunExposed,               !- Sun Exposure
    WindExposed,              !- Wind Exposure
    autocalculate,            !- View Factor to Ground
    autocalculate,            !- Number of Vertices
    45.172305399086326,       !- Vertex 1 Xcoordinate
    51.42362080840394,        !- Vertex 1 Ycoordinate
    12,                       !- Vertex 1 Zcoordinate
    45.172305399086326,       !- Vertex 2 Xcoordinate
    51.42362080840394,        !- Vertex 2 Ycoordinate
    9,                        !- Vertex 2 Zcoordinate
    36.65250111126807,        !- Vertex 3 Xcoordinate
    54.65216964390129,        !- Vertex 3 Ycoordinate
    9,                        !- Vertex 3 Zcoordinate
    36.65250111126807,        !- Vertex 4 Xcoordinate
    54.65216964390129,        !- Vertex 4 Ycoordinate
    12;                       !- Vertex 4 Zcoordinate

BUILDINGSURFACE:DETAILED,
    Block Poly_57_Administration Storey 3 Wall 0019,    !- Name
    Wall,                     !- Surface Type
    HSCWZ_Public&Industrial_1995_ExtWall,    !- Construction Name
    Block Poly_57_Administration Storey 3,    !- Zone Name
    ,                         !- Space Name
    Outdoors,                 !- Outside Boundary Condition
    ,                         !- Outside Boundary Condition Object
    SunExposed,               !- Sun Exposure
    WindExposed,              !- Wind Exposure
    autocalculate,            !- View Factor to Ground
    autocalculate,            !- Number of Vertices
    36.65250111126807,        !- Vertex 1 Xcoordinate
    54.65216964390129,        !- Vertex 1 Ycoordinate
    12,                       !- Vertex 1 Zcoordinate
    36.65250111126807,        !- Vertex 2 Xcoordinate
    54.65216964390129,        !- Vertex 2 Ycoordinate
    9,                        !- Vertex 2 Zcoordinate
    29.605322141665965,       !- Vertex 3 Xcoordinate
    54.42217774409801,        !- Vertex 3 Ycoordinate
    9,                        !- Vertex 3 Zcoordinate
    29.605322141665965,       !- Vertex 4 Xcoordinate
    54.42217774409801,        !- Vertex 4 Ycoordinate
    12;                       !- Vertex 4 Zcoordinate

BUILDINGSURFACE:DETAILED,
    Block Poly_57_Administration Storey 3 Wall 0020,    !- Name
    Wall,                     !- Surface Type
    HSCWZ_Public&Industrial_1995_ExtWall,    !- Construction Name
    Block Poly_57_Administration Storey 3,    !- Zone Name
    ,                         !- Space Name
    Outdoors,                 !- Outside Boundary Condition
    ,                         !- Outside Boundary Condition Object
    SunExposed,               !- Sun Exposure
    WindExposed,              !- Wind Exposure
    autocalculate,            !- View Factor to Ground
    autocalculate,            !- Number of Vertices
    29.605322141665965,       !- Vertex 1 Xcoordinate
    54.42217774409801,        !- Vertex 1 Ycoordinate
    12,                       !- Vertex 1 Zcoordinate
    29.605322141665965,       !- Vertex 2 Xcoordinate
    54.42217774409801,        !- Vertex 2 Ycoordinate
    9,                        !- Vertex 2 Zcoordinate
    20.901560825121123,       !- Vertex 3 Xcoordinate
    51.55533633520827,        !- Vertex 3 Ycoordinate
    9,                        !- Vertex 3 Zcoordinate
    20.901560825121123,       !- Vertex 4 Xcoordinate
    51.55533633520827,        !- Vertex 4 Ycoordinate
    12;                       !- Vertex 4 Zcoordinate

BUILDINGSURFACE:DETAILED,
    Block Poly_57_Administration Storey 3 Wall 0021,    !- Name
    Wall,                     !- Surface Type
    HSCWZ_Public&Industrial_1995_ExtWall,    !- Construction Name
    Block Poly_57_Administration Storey 3,    !- Zone Name
    ,                         !- Space Name
    Outdoors,                 !- Outside Boundary Condition
    ,                         !- Outside Boundary Condition Object
    SunExposed,               !- Sun Exposure
    WindExposed,              !- Wind Exposure
    autocalculate,            !- View Factor to Ground
    autocalculate,            !- Number of Vertices
    20.901560825121123,       !- Vertex 1 Xcoordinate
    51.55533633520827,        !- Vertex 1 Ycoordinate
    12,                       !- Vertex 1 Zcoordinate
    20.901560825121123,       !- Vertex 2 Xcoordinate
    51.55533633520827,        !- Vertex 2 Ycoordinate
    9,                        !- Vertex 2 Zcoordinate
    9.570166039920878,        !- Vertex 3 Xcoordinate
    44.73530222894624,        !- Vertex 3 Ycoordinate
    9,                        !- Vertex 3 Zcoordinate
    9.570166039920878,        !- Vertex 4 Xcoordinate
    44.73530222894624,        !- Vertex 4 Ycoordinate
    12;                       !- Vertex 4 Zcoordinate

BUILDINGSURFACE:DETAILED,
    Block Poly_57_Administration Storey 4 Wall 0001,    !- Name
    Wall,                     !- Surface Type
    HSCWZ_Public&Industrial_1995_ExtWall,    !- Construction Name
    Block Poly_57_Administration Storey 4,    !- Zone Name
    ,                         !- Space Name
    Outdoors,                 !- Outside Boundary Condition
    ,                         !- Outside Boundary Condition Object
    SunExposed,               !- Sun Exposure
    WindExposed,              !- Wind Exposure
    autocalculate,            !- View Factor to Ground
    autocalculate,            !- Number of Vertices
    9.570166039920878,        !- Vertex 1 Xcoordinate
    44.73530222894624,        !- Vertex 1 Ycoordinate
    15,                       !- Vertex 1 Zcoordinate
    9.570166039920878,        !- Vertex 2 Xcoordinate
    44.73530222894624,        !- Vertex 2 Ycoordinate
    12,                       !- Vertex 2 Zcoordinate
    5.615043988102116,        !- Vertex 3 Xcoordinate
    41.1340618673712,         !- Vertex 3 Ycoordinate
    12,                       !- Vertex 3 Zcoordinate
    5.615043988102116,        !- Vertex 4 Xcoordinate
    41.1340618673712,         !- Vertex 4 Ycoordinate
    15;                       !- Vertex 4 Zcoordinate

BUILDINGSURFACE:DETAILED,
    Block Poly_57_Administration Storey 4 Wall 0002,    !- Name
    Wall,                     !- Surface Type
    HSCWZ_Public&Industrial_1995_ExtWall,    !- Construction Name
    Block Poly_57_Administration Storey 4,    !- Zone Name
    ,                         !- Space Name
    Outdoors,                 !- Outside Boundary Condition
    ,                         !- Outside Boundary Condition Object
    SunExposed,               !- Sun Exposure
    WindExposed,              !- Wind Exposure
    autocalculate,            !- View Factor to Ground
    autocalculate,            !- Number of Vertices
    5.615043988102116,        !- Vertex 1 Xcoordinate
    41.1340618673712,         !- Vertex 1 Ycoordinate
    15,                       !- Vertex 1 Zcoordinate
    5.615043988102116,        !- Vertex 2 Xcoordinate
    41.1340618673712,         !- Vertex 2 Ycoordinate
    12,                       !- Vertex 2 Zcoordinate
    2.3905753248836845,       !- Vertex 3 Xcoordinate
    35.41556950751692,        !- Vertex 3 Ycoordinate
    12,                       !- Vertex 3 Zcoordinate
    2.3905753248836845,       !- Vertex 4 Xcoordinate
    35.41556950751692,        !- Vertex 4 Ycoordinate
    15;                       !- Vertex 4 Zcoordinate

BUILDINGSURFACE:DETAILED,
    Block Poly_57_Administration Storey 4 Wall 0003,    !- Name
    Wall,                     !- Surface Type
    HSCWZ_Public&Industrial_1995_ExtWall,    !- Construction Name
    Block Poly_57_Administration Storey 4,    !- Zone Name
    ,                         !- Space Name
    Outdoors,                 !- Outside Boundary Condition
    ,                         !- Outside Boundary Condition Object
    SunExposed,               !- Sun Exposure
    WindExposed,              !- Wind Exposure
    autocalculate,            !- View Factor to Ground
    autocalculate,            !- Number of Vertices
    2.3905753248836845,       !- Vertex 1 Xcoordinate
    35.41556950751692,        !- Vertex 1 Ycoordinate
    15,                       !- Vertex 1 Zcoordinate
    2.3905753248836845,       !- Vertex 2 Xcoordinate
    35.41556950751692,        !- Vertex 2 Ycoordinate
    12,                       !- Vertex 2 Zcoordinate
    0,                        !- Vertex 3 Xcoordinate
    28.13269183132797,        !- Vertex 3 Ycoordinate
    12,                       !- Vertex 3 Zcoordinate
    0,                        !- Vertex 4 Xcoordinate
    28.13269183132797,        !- Vertex 4 Ycoordinate
    15;                       !- Vertex 4 Zcoordinate

BUILDINGSURFACE:DETAILED,
    Block Poly_57_Administration Storey 4 Wall 0004,    !- Name
    Wall,                     !- Surface Type
    HSCWZ_Public&Industrial_1995_ExtWall,    !- Construction Name
    Block Poly_57_Administration Storey 4,    !- Zone Name
    ,                         !- Space Name
    Outdoors,                 !- Outside Boundary Condition
    ,                         !- Outside Boundary Condition Object
    SunExposed,               !- Sun Exposure
    WindExposed,              !- Wind Exposure
    autocalculate,            !- View Factor to Ground
    autocalculate,            !- Number of Vertices
    0,                        !- Vertex 1 Xcoordinate
    28.13269183132797,        !- Vertex 1 Ycoordinate
    15,                       !- Vertex 1 Zcoordinate
    0,                        !- Vertex 2 Xcoordinate
    28.13269183132797,        !- Vertex 2 Ycoordinate
    12,                       !- Vertex 2 Zcoordinate
    0.7032068736152723,       !- Vertex 3 Xcoordinate
    24.13097620755434,        !- Vertex 3 Ycoordinate
    12,                       !- Vertex 3 Zcoordinate
    0.7032068736152723,       !- Vertex 4 Xcoordinate
    24.13097620755434,        !- Vertex 4 Ycoordinate
    15;                       !- Vertex 4 Zcoordinate

BUILDINGSURFACE:DETAILED,
    Block Poly_57_Administration Storey 4 Wall 0005,    !- Name
    Wall,                     !- Surface Type
    HSCWZ_Public&Industrial_1995_ExtWall,    !- Construction Name
    Block Poly_57_Administration Storey 4,    !- Zone Name
    ,                         !- Space Name
    Outdoors,                 !- Outside Boundary Condition
    ,                         !- Outside Boundary Condition Object
    SunExposed,               !- Sun Exposure
    WindExposed,              !- Wind Exposure
    autocalculate,            !- View Factor to Ground
    autocalculate,            !- Number of Vertices
    0.7032068736152723,       !- Vertex 1 Xcoordinate
    24.13097620755434,        !- Vertex 1 Ycoordinate
    15,                       !- Vertex 1 Zcoordinate
    0.7032068736152723,       !- Vertex 2 Xcoordinate
    24.13097620755434,        !- Vertex 2 Ycoordinate
    12,                       !- Vertex 2 Zcoordinate
    4.227517550752964,        !- Vertex 3 Xcoordinate
    17.75980935851112,        !- Vertex 3 Ycoordinate
    12,                       !- Vertex 3 Zcoordinate
    4.227517550752964,        !- Vertex 4 Xcoordinate
    17.75980935851112,        !- Vertex 4 Ycoordinate
    15;                       !- Vertex 4 Zcoordinate

BUILDINGSURFACE:DETAILED,
    Block Poly_57_Administration Storey 4 Wall 0006,    !- Name
    Wall,                     !- Surface Type
    HSCWZ_Public&Industrial_1995_ExtWall,    !- Construction Name
    Block Poly_57_Administration Storey 4,    !- Zone Name
    ,                         !- Space Name
    Outdoors,                 !- Outside Boundary Condition
    ,                         !- Outside Boundary Condition Object
    SunExposed,               !- Sun Exposure
    WindExposed,              !- Wind Exposure
    autocalculate,            !- View Factor to Ground
    autocalculate,            !- Number of Vertices
    4.227517550752964,        !- Vertex 1 Xcoordinate
    17.75980935851112,        !- Vertex 1 Ycoordinate
    15,                       !- Vertex 1 Zcoordinate
    4.227517550752964,        !- Vertex 2 Xcoordinate
    17.75980935851112,        !- Vertex 2 Ycoordinate
    12,                       !- Vertex 2 Zcoordinate
    11.168160954490304,       !- Vertex 3 Xcoordinate
    10.67363831680268,        !- Vertex 3 Ycoordinate
    12,                       !- Vertex 3 Zcoordinate
    11.168160954490304,       !- Vertex 4 Xcoordinate
    10.67363831680268,        !- Vertex 4 Ycoordinate
    15;                       !- Vertex 4 Zcoordinate

BUILDINGSURFACE:DETAILED,
    Block Poly_57_Administration Storey 4 Wall 0007,    !- Name
    Wall,                     !- Surface Type
    HSCWZ_Public&Industrial_1995_ExtWall,    !- Construction Name
    Block Poly_57_Administration Storey 4,    !- Zone Name
    ,                         !- Space Name
    Outdoors,                 !- Outside Boundary Condition
    ,                         !- Outside Boundary Condition Object
    SunExposed,               !- Sun Exposure
    WindExposed,              !- Wind Exposure
    autocalculate,            !- View Factor to Ground
    autocalculate,            !- Number of Vertices
    11.168160954490304,       !- Vertex 1 Xcoordinate
    10.67363831680268,        !- Vertex 1 Ycoordinate
    15,                       !- Vertex 1 Zcoordinate
    11.168160954490304,       !- Vertex 2 Xcoordinate
    10.67363831680268,        !- Vertex 2 Ycoordinate
    12,                       !- Vertex 2 Zcoordinate
    19.652476686926093,       !- Vertex 3 Xcoordinate
    5.00635452568531,         !- Vertex 3 Ycoordinate
    12,                       !- Vertex 3 Zcoordinate
    19.652476686926093,       !- Vertex 4 Xcoordinate
    5.00635452568531,         !- Vertex 4 Ycoordinate
    15;                       !- Vertex 4 Zcoordinate

BUILDINGSURFACE:DETAILED,
    Block Poly_57_Administration Storey 4 Wall 0008,    !- Name
    Wall,                     !- Surface Type
    HSCWZ_Public&Industrial_1995_ExtWall,    !- Construction Name
    Block Poly_57_Administration Storey 4,    !- Zone Name
    ,                         !- Space Name
    Outdoors,                 !- Outside Boundary Condition
    ,                         !- Outside Boundary Condition Object
    SunExposed,               !- Sun Exposure
    WindExposed,              !- Wind Exposure
    autocalculate,            !- View Factor to Ground
    autocalculate,            !- Number of Vertices
    19.652476686926093,       !- Vertex 1 Xcoordinate
    5.00635452568531,         !- Vertex 1 Ycoordinate
    15,                       !- Vertex 1 Zcoordinate
    19.652476686926093,       !- Vertex 2 Xcoordinate
    5.00635452568531,         !- Vertex 2 Ycoordinate
    12,                       !- Vertex 2 Zcoordinate
    27.698096323176287,       !- Vertex 3 Xcoordinate
    1.8955740747042,          !- Vertex 3 Ycoordinate
    12,                       !- Vertex 3 Zcoordinate
    27.698096323176287,       !- Vertex 4 Xcoordinate
    1.8955740747042,          !- Vertex 4 Ycoordinate
    15;                       !- Vertex 4 Zcoordinate

BUILDINGSURFACE:DETAILED,
    Block Poly_57_Administration Storey 4 Wall 0009,    !- Name
    Wall,                     !- Surface Type
    HSCWZ_Public&Industrial_1995_ExtWall,    !- Construction Name
    Block Poly_57_Administration Storey 4,    !- Zone Name
    ,                         !- Space Name
    Outdoors,                 !- Outside Boundary Condition
    ,                         !- Outside Boundary Condition Object
    SunExposed,               !- Sun Exposure
    WindExposed,              !- Wind Exposure
    autocalculate,            !- View Factor to Ground
    autocalculate,            !- Number of Vertices
    27.698096323176287,       !- Vertex 1 Xcoordinate
    1.8955740747042,          !- Vertex 1 Ycoordinate
    15,                       !- Vertex 1 Zcoordinate
    27.698096323176287,       !- Vertex 2 Xcoordinate
    1.8955740747042,          !- Vertex 2 Ycoordinate
    12,                       !- Vertex 2 Zcoordinate
    36.0469793662196,         !- Vertex 3 Xcoordinate
    0,                        !- Vertex 3 Ycoordinate
    12,                       !- Vertex 3 Zcoordinate
    36.0469793662196,         !- Vertex 4 Xcoordinate
    0,                        !- Vertex 4 Ycoordinate
    15;                       !- Vertex 4 Zcoordinate

BUILDINGSURFACE:DETAILED,
    Block Poly_57_Administration Storey 4 Wall 0010,    !- Name
    Wall,                     !- Surface Type
    HSCWZ_Public&Industrial_1995_ExtWall,    !- Construction Name
    Block Poly_57_Administration Storey 4,    !- Zone Name
    ,                         !- Space Name
    Outdoors,                 !- Outside Boundary Condition
    ,                         !- Outside Boundary Condition Object
    SunExposed,               !- Sun Exposure
    WindExposed,              !- Wind Exposure
    autocalculate,            !- View Factor to Ground
    autocalculate,            !- Number of Vertices
    36.0469793662196,         !- Vertex 1 Xcoordinate
    0,                        !- Vertex 1 Ycoordinate
    15,                       !- Vertex 1 Zcoordinate
    36.0469793662196,         !- Vertex 2 Xcoordinate
    0,                        !- Vertex 2 Ycoordinate
    12,                       !- Vertex 2 Zcoordinate
    43.10226554592373,        !- Vertex 3 Xcoordinate
    0.7842511385679245,       !- Vertex 3 Ycoordinate
    12,                       !- Vertex 3 Zcoordinate
    43.10226554592373,        !- Vertex 4 Xcoordinate
    0.7842511385679245,       !- Vertex 4 Ycoordinate
    15;                       !- Vertex 4 Zcoordinate

BUILDINGSURFACE:DETAILED,
    Block Poly_57_Administration Storey 4 Wall 0011,    !- Name
    Wall,                     !- Surface Type
    HSCWZ_Public&Industrial_1995_ExtWall,    !- Construction Name
    Block Poly_57_Administration Storey 4,    !- Zone Name
    ,                         !- Space Name
    Outdoors,                 !- Outside Boundary Condition
    ,                         !- Outside Boundary Condition Object
    SunExposed,               !- Sun Exposure
    WindExposed,              !- Wind Exposure
    autocalculate,            !- View Factor to Ground
    autocalculate,            !- Number of Vertices
    43.10226554592373,        !- Vertex 1 Xcoordinate
    0.7842511385679245,       !- Vertex 1 Ycoordinate
    15,                       !- Vertex 1 Zcoordinate
    43.10226554592373,        !- Vertex 2 Xcoordinate
    0.7842511385679245,       !- Vertex 2 Ycoordinate
    12,                       !- Vertex 2 Zcoordinate
    49.70754104084335,        !- Vertex 3 Xcoordinate
    3.3490470466203988,       !- Vertex 3 Ycoordinate
    12,                       !- Vertex 3 Zcoordinate
    49.70754104084335,        !- Vertex 4 Xcoordinate
    3.3490470466203988,       !- Vertex 4 Ycoordinate
    15;                       !- Vertex 4 Zcoordinate

BUILDINGSURFACE:DETAILED,
    Block Poly_57_Administration Storey 4 Wall 0012,    !- Name
    Wall,                     !- Surface Type
    HSCWZ_Public&Industrial_1995_ExtWall,    !- Construction Name
    Block Poly_57_Administration Storey 4,    !- Zone Name
    ,                         !- Space Name
    Outdoors,                 !- Outside Boundary Condition
    ,                         !- Outside Boundary Condition Object
    SunExposed,               !- Sun Exposure
    WindExposed,              !- Wind Exposure
    autocalculate,            !- View Factor to Ground
    autocalculate,            !- Number of Vertices
    49.70754104084335,        !- Vertex 1 Xcoordinate
    3.3490470466203988,       !- Vertex 1 Ycoordinate
    15,                       !- Vertex 1 Zcoordinate
    49.70754104084335,        !- Vertex 2 Xcoordinate
    3.3490470466203988,       !- Vertex 2 Ycoordinate
    12,                       !- Vertex 2 Zcoordinate
    54.4465949399164,         !- Vertex 3 Xcoordinate
    8.49112764140591,         !- Vertex 3 Ycoordinate
    12,                       !- Vertex 3 Zcoordinate
    54.4465949399164,         !- Vertex 4 Xcoordinate
    8.49112764140591,         !- Vertex 4 Ycoordinate
    15;                       !- Vertex 4 Zcoordinate

BUILDINGSURFACE:DETAILED,
    Block Poly_57_Administration Storey 4 Wall 0013,    !- Name
    Wall,                     !- Surface Type
    HSCWZ_Public&Industrial_1995_ExtWall,    !- Construction Name
    Block Poly_57_Administration Storey 4,    !- Zone Name
    ,                         !- Space Name
    Outdoors,                 !- Outside Boundary Condition
    ,                         !- Outside Boundary Condition Object
    SunExposed,               !- Sun Exposure
    WindExposed,              !- Wind Exposure
    autocalculate,            !- View Factor to Ground
    autocalculate,            !- Number of Vertices
    54.4465949399164,         !- Vertex 1 Xcoordinate
    8.49112764140591,         !- Vertex 1 Ycoordinate
    15,                       !- Vertex 1 Zcoordinate
    54.4465949399164,         !- Vertex 2 Xcoordinate
    8.49112764140591,         !- Vertex 2 Ycoordinate
    12,                       !- Vertex 2 Zcoordinate
    58.4808002486825,         !- Vertex 3 Xcoordinate
    17.524070274084806,       !- Vertex 3 Ycoordinate
    12,                       !- Vertex 3 Zcoordinate
    58.4808002486825,         !- Vertex 4 Xcoordinate
    17.524070274084806,       !- Vertex 4 Ycoordinate
    15;                       !- Vertex 4 Zcoordinate

BUILDINGSURFACE:DETAILED,
    Block Poly_57_Administration Storey 4 Wall 0014,    !- Name
    Wall,                     !- Surface Type
    HSCWZ_Public&Industrial_1995_ExtWall,    !- Construction Name
    Block Poly_57_Administration Storey 4,    !- Zone Name
    ,                         !- Space Name
    Outdoors,                 !- Outside Boundary Condition
    ,                         !- Outside Boundary Condition Object
    SunExposed,               !- Sun Exposure
    WindExposed,              !- Wind Exposure
    autocalculate,            !- View Factor to Ground
    autocalculate,            !- Number of Vertices
    58.4808002486825,         !- Vertex 1 Xcoordinate
    17.524070274084806,       !- Vertex 1 Ycoordinate
    15,                       !- Vertex 1 Zcoordinate
    58.4808002486825,         !- Vertex 2 Xcoordinate
    17.524070274084806,       !- Vertex 2 Ycoordinate
    12,                       !- Vertex 2 Zcoordinate
    57.86473142134491,        !- Vertex 3 Xcoordinate
    27.51171887619421,        !- Vertex 3 Ycoordinate
    12,                       !- Vertex 3 Zcoordinate
    57.86473142134491,        !- Vertex 4 Xcoordinate
    27.51171887619421,        !- Vertex 4 Ycoordinate
    15;                       !- Vertex 4 Zcoordinate

BUILDINGSURFACE:DETAILED,
    Block Poly_57_Administration Storey 4 Wall 0015,    !- Name
    Wall,                     !- Surface Type
    HSCWZ_Public&Industrial_1995_ExtWall,    !- Construction Name
    Block Poly_57_Administration Storey 4,    !- Zone Name
    ,                         !- Space Name
    Outdoors,                 !- Outside Boundary Condition
    ,                         !- Outside Boundary Condition Object
    SunExposed,               !- Sun Exposure
    WindExposed,              !- Wind Exposure
    autocalculate,            !- View Factor to Ground
    autocalculate,            !- Number of Vertices
    57.86473142134491,        !- Vertex 1 Xcoordinate
    27.51171887619421,        !- Vertex 1 Ycoordinate
    15,                       !- Vertex 1 Zcoordinate
    57.86473142134491,        !- Vertex 2 Xcoordinate
    27.51171887619421,        !- Vertex 2 Ycoordinate
    12,                       !- Vertex 2 Zcoordinate
    55.88727457728237,        !- Vertex 3 Xcoordinate
    35.523455287795514,       !- Vertex 3 Ycoordinate
    12,                       !- Vertex 3 Zcoordinate
    55.88727457728237,        !- Vertex 4 Xcoordinate
    35.523455287795514,       !- Vertex 4 Ycoordinate
    15;                       !- Vertex 4 Zcoordinate

BUILDINGSURFACE:DETAILED,
    Block Poly_57_Administration Storey 4 Wall 0016,    !- Name
    Wall,                     !- Surface Type
    HSCWZ_Public&Industrial_1995_ExtWall,    !- Construction Name
    Block Poly_57_Administration Storey 4,    !- Zone Name
    ,                         !- Space Name
    Outdoors,                 !- Outside Boundary Condition
    ,                         !- Outside Boundary Condition Object
    SunExposed,               !- Sun Exposure
    WindExposed,              !- Wind Exposure
    autocalculate,            !- View Factor to Ground
    autocalculate,            !- Number of Vertices
    55.88727457728237,        !- Vertex 1 Xcoordinate
    35.523455287795514,       !- Vertex 1 Ycoordinate
    15,                       !- Vertex 1 Zcoordinate
    55.88727457728237,        !- Vertex 2 Xcoordinate
    35.523455287795514,       !- Vertex 2 Ycoordinate
    12,                       !- Vertex 2 Zcoordinate
    49.29345961642685,        !- Vertex 3 Xcoordinate
    46.81776582496241,        !- Vertex 3 Ycoordinate
    12,                       !- Vertex 3 Zcoordinate
    49.29345961642685,        !- Vertex 4 Xcoordinate
    46.81776582496241,        !- Vertex 4 Ycoordinate
    15;                       !- Vertex 4 Zcoordinate

BUILDINGSURFACE:DETAILED,
    Block Poly_57_Administration Storey 4 Wall 0017,    !- Name
    Wall,                     !- Surface Type
    HSCWZ_Public&Industrial_1995_ExtWall,    !- Construction Name
    Block Poly_57_Administration Storey 4,    !- Zone Name
    ,                         !- Space Name
    Outdoors,                 !- Outside Boundary Condition
    ,                         !- Outside Boundary Condition Object
    SunExposed,               !- Sun Exposure
    WindExposed,              !- Wind Exposure
    autocalculate,            !- View Factor to Ground
    autocalculate,            !- Number of Vertices
    49.29345961642685,        !- Vertex 1 Xcoordinate
    46.81776582496241,        !- Vertex 1 Ycoordinate
    15,                       !- Vertex 1 Zcoordinate
    49.29345961642685,        !- Vertex 2 Xcoordinate
    46.81776582496241,        !- Vertex 2 Ycoordinate
    12,                       !- Vertex 2 Zcoordinate
    45.172305399086326,       !- Vertex 3 Xcoordinate
    51.42362080840394,        !- Vertex 3 Ycoordinate
    12,                       !- Vertex 3 Zcoordinate
    45.172305399086326,       !- Vertex 4 Xcoordinate
    51.42362080840394,        !- Vertex 4 Ycoordinate
    15;                       !- Vertex 4 Zcoordinate

BUILDINGSURFACE:DETAILED,
    Block Poly_57_Administration Storey 4 Wall 0018,    !- Name
    Wall,                     !- Surface Type
    HSCWZ_Public&Industrial_1995_ExtWall,    !- Construction Name
    Block Poly_57_Administration Storey 4,    !- Zone Name
    ,                         !- Space Name
    Outdoors,                 !- Outside Boundary Condition
    ,                         !- Outside Boundary Condition Object
    SunExposed,               !- Sun Exposure
    WindExposed,              !- Wind Exposure
    autocalculate,            !- View Factor to Ground
    autocalculate,            !- Number of Vertices
    45.172305399086326,       !- Vertex 1 Xcoordinate
    51.42362080840394,        !- Vertex 1 Ycoordinate
    15,                       !- Vertex 1 Zcoordinate
    45.172305399086326,       !- Vertex 2 Xcoordinate
    51.42362080840394,        !- Vertex 2 Ycoordinate
    12,                       !- Vertex 2 Zcoordinate
    36.65250111126807,        !- Vertex 3 Xcoordinate
    54.65216964390129,        !- Vertex 3 Ycoordinate
    12,                       !- Vertex 3 Zcoordinate
    36.65250111126807,        !- Vertex 4 Xcoordinate
    54.65216964390129,        !- Vertex 4 Ycoordinate
    15;                       !- Vertex 4 Zcoordinate

BUILDINGSURFACE:DETAILED,
    Block Poly_57_Administration Storey 4 Wall 0019,    !- Name
    Wall,                     !- Surface Type
    HSCWZ_Public&Industrial_1995_ExtWall,    !- Construction Name
    Block Poly_57_Administration Storey 4,    !- Zone Name
    ,                         !- Space Name
    Outdoors,                 !- Outside Boundary Condition
    ,                         !- Outside Boundary Condition Object
    SunExposed,               !- Sun Exposure
    WindExposed,              !- Wind Exposure
    autocalculate,            !- View Factor to Ground
    autocalculate,            !- Number of Vertices
    36.65250111126807,        !- Vertex 1 Xcoordinate
    54.65216964390129,        !- Vertex 1 Ycoordinate
    15,                       !- Vertex 1 Zcoordinate
    36.65250111126807,        !- Vertex 2 Xcoordinate
    54.65216964390129,        !- Vertex 2 Ycoordinate
    12,                       !- Vertex 2 Zcoordinate
    29.605322141665965,       !- Vertex 3 Xcoordinate
    54.42217774409801,        !- Vertex 3 Ycoordinate
    12,                       !- Vertex 3 Zcoordinate
    29.605322141665965,       !- Vertex 4 Xcoordinate
    54.42217774409801,        !- Vertex 4 Ycoordinate
    15;                       !- Vertex 4 Zcoordinate

BUILDINGSURFACE:DETAILED,
    Block Poly_57_Administration Storey 4 Wall 0020,    !- Name
    Wall,                     !- Surface Type
    HSCWZ_Public&Industrial_1995_ExtWall,    !- Construction Name
    Block Poly_57_Administration Storey 4,    !- Zone Name
    ,                         !- Space Name
    Outdoors,                 !- Outside Boundary Condition
    ,                         !- Outside Boundary Condition Object
    SunExposed,               !- Sun Exposure
    WindExposed,              !- Wind Exposure
    autocalculate,            !- View Factor to Ground
    autocalculate,            !- Number of Vertices
    29.605322141665965,       !- Vertex 1 Xcoordinate
    54.42217774409801,        !- Vertex 1 Ycoordinate
    15,                       !- Vertex 1 Zcoordinate
    29.605322141665965,       !- Vertex 2 Xcoordinate
    54.42217774409801,        !- Vertex 2 Ycoordinate
    12,                       !- Vertex 2 Zcoordinate
    20.901560825121123,       !- Vertex 3 Xcoordinate
    51.55533633520827,        !- Vertex 3 Ycoordinate
    12,                       !- Vertex 3 Zcoordinate
    20.901560825121123,       !- Vertex 4 Xcoordinate
    51.55533633520827,        !- Vertex 4 Ycoordinate
    15;                       !- Vertex 4 Zcoordinate

BUILDINGSURFACE:DETAILED,
    Block Poly_57_Administration Storey 4 Wall 0021,    !- Name
    Wall,                     !- Surface Type
    HSCWZ_Public&Industrial_1995_ExtWall,    !- Construction Name
    Block Poly_57_Administration Storey 4,    !- Zone Name
    ,                         !- Space Name
    Outdoors,                 !- Outside Boundary Condition
    ,                         !- Outside Boundary Condition Object
    SunExposed,               !- Sun Exposure
    WindExposed,              !- Wind Exposure
    autocalculate,            !- View Factor to Ground
    autocalculate,            !- Number of Vertices
    20.901560825121123,       !- Vertex 1 Xcoordinate
    51.55533633520827,        !- Vertex 1 Ycoordinate
    15,                       !- Vertex 1 Zcoordinate
    20.901560825121123,       !- Vertex 2 Xcoordinate
    51.55533633520827,        !- Vertex 2 Ycoordinate
    12,                       !- Vertex 2 Zcoordinate
    9.570166039920878,        !- Vertex 3 Xcoordinate
    44.73530222894624,        !- Vertex 3 Ycoordinate
    12,                       !- Vertex 3 Zcoordinate
    9.570166039920878,        !- Vertex 4 Xcoordinate
    44.73530222894624,        !- Vertex 4 Ycoordinate
    15;                       !- Vertex 4 Zcoordinate

BUILDINGSURFACE:DETAILED,
    Block Poly_57_Administration Storey 4 Roof 0001,    !- Name
    Roof,                     !- Surface Type
    HSCWZ_Public&Industrial_1995_Roof,    !- Construction Name
    Block Poly_57_Administration Storey 4,    !- Zone Name
    ,                         !- Space Name
    Outdoors,                 !- Outside Boundary Condition
    ,                         !- Outside Boundary Condition Object
    SunExposed,               !- Sun Exposure
    WindExposed,              !- Wind Exposure
    autocalculate,            !- View Factor to Ground
    autocalculate,            !- Number of Vertices
    49.70754104084335,        !- Vertex 1 Xcoordinate
    3.3490470466203988,       !- Vertex 1 Ycoordinate
    15,                       !- Vertex 1 Zcoordinate
    54.4465949399164,         !- Vertex 2 Xcoordinate
    8.49112764140591,         !- Vertex 2 Ycoordinate
    15,                       !- Vertex 2 Zcoordinate
    58.4808002486825,         !- Vertex 3 Xcoordinate
    17.524070274084806,       !- Vertex 3 Ycoordinate
    15,                       !- Vertex 3 Zcoordinate
    57.86473142134491,        !- Vertex 4 Xcoordinate
    27.51171887619421,        !- Vertex 4 Ycoordinate
    15,                       !- Vertex 4 Zcoordinate
    55.88727457728237,        !- Vertex 5 Xcoordinate
    35.523455287795514,       !- Vertex 5 Ycoordinate
    15,                       !- Vertex 5 Zcoordinate
    49.29345961642685,        !- Vertex 6 Xcoordinate
    46.81776582496241,        !- Vertex 6 Ycoordinate
    15,                       !- Vertex 6 Zcoordinate
    45.172305399086326,       !- Vertex 7 Xcoordinate
    51.42362080840394,        !- Vertex 7 Ycoordinate
    15,                       !- Vertex 7 Zcoordinate
    36.65250111126807,        !- Vertex 8 Xcoordinate
    54.65216964390129,        !- Vertex 8 Ycoordinate
    15,                       !- Vertex 8 Zcoordinate
    29.605322141665965,       !- Vertex 9 Xcoordinate
    54.42217774409801,        !- Vertex 9 Ycoordinate
    15,                       !- Vertex 9 Zcoordinate
    20.901560825121123,       !- Vertex 10 Xcoordinate
    51.55533633520827,        !- Vertex 10 Ycoordinate
    15,                       !- Vertex 10 Zcoordinate
    9.570166039920878,        !- Vertex 11 Xcoordinate
    44.73530222894624,        !- Vertex 11 Ycoordinate
    15,                       !- Vertex 11 Zcoordinate
    5.615043988102116,        !- Vertex 12 Xcoordinate
    41.1340618673712,         !- Vertex 12 Ycoordinate
    15,                       !- Vertex 12 Zcoordinate
    2.3905753248836845,       !- Vertex 13 Xcoordinate
    35.41556950751692,        !- Vertex 13 Ycoordinate
    15,                       !- Vertex 13 Zcoordinate
    0,                        !- Vertex 14 Xcoordinate
    28.13269183132797,        !- Vertex 14 Ycoordinate
    15,                       !- Vertex 14 Zcoordinate
    0.7032068736152723,       !- Vertex 15 Xcoordinate
    24.13097620755434,        !- Vertex 15 Ycoordinate
    15,                       !- Vertex 15 Zcoordinate
    4.227517550752964,        !- Vertex 16 Xcoordinate
    17.75980935851112,        !- Vertex 16 Ycoordinate
    15,                       !- Vertex 16 Zcoordinate
    11.168160954490304,       !- Vertex 17 Xcoordinate
    10.67363831680268,        !- Vertex 17 Ycoordinate
    15,                       !- Vertex 17 Zcoordinate
    19.652476686926093,       !- Vertex 18 Xcoordinate
    5.00635452568531,         !- Vertex 18 Ycoordinate
    15,                       !- Vertex 18 Zcoordinate
    27.698096323176287,       !- Vertex 19 Xcoordinate
    1.8955740747042,          !- Vertex 19 Ycoordinate
    15,                       !- Vertex 19 Zcoordinate
    36.0469793662196,         !- Vertex 20 Xcoordinate
    0,                        !- Vertex 20 Ycoordinate
    15,                       !- Vertex 20 Zcoordinate
    43.10226554592373,        !- Vertex 21 Xcoordinate
    0.7842511385679245,       !- Vertex 21 Ycoordinate
    15;                       !- Vertex 21 Zcoordinate

BUILDINGSURFACE:DETAILED,
    Block Poly_57_Administration Storey 0 Ceiling 0001_1,    !- Name
    Ceiling,                  !- Surface Type
    HSCWZ_Public&Industrial_1995_FloorSlab,    !- Construction Name
    Block Poly_57_Administration Storey 0,    !- Zone Name
    ,                         !- Space Name
    Surface,                  !- Outside Boundary Condition
    Block Poly_57_Administration Storey 1 Floor 0001_1,    !- Outside Boundary Condition Object
    NoSun,                    !- Sun Exposure
    NoWind,                   !- Wind Exposure
    autocalculate,            !- View Factor to Ground
    autocalculate,            !- Number of Vertices
    49.70754104061052,        !- Vertex 1 Xcoordinate
    3.3490470466203988,       !- Vertex 1 Ycoordinate
    3,                        !- Vertex 1 Zcoordinate
    54.44659493956715,        !- Vertex 2 Xcoordinate
    8.49112764140591,         !- Vertex 2 Ycoordinate
    3,                        !- Vertex 2 Zcoordinate
    58.4808002486825,         !- Vertex 3 Xcoordinate
    17.524070274084806,       !- Vertex 3 Ycoordinate
    3,                        !- Vertex 3 Zcoordinate
    57.8647314212285,         !- Vertex 4 Xcoordinate
    27.51171887619421,        !- Vertex 4 Ycoordinate
    3,                        !- Vertex 4 Zcoordinate
    55.88727457728237,        !- Vertex 5 Xcoordinate
    35.523455287795514,       !- Vertex 5 Ycoordinate
    3,                        !- Vertex 5 Zcoordinate
    49.293459616135806,       !- Vertex 6 Xcoordinate
    46.81776582496241,        !- Vertex 6 Ycoordinate
    3,                        !- Vertex 6 Zcoordinate
    45.172305399086326,       !- Vertex 7 Xcoordinate
    51.42362080840394,        !- Vertex 7 Ycoordinate
    3,                        !- Vertex 7 Zcoordinate
    36.65250111091882,        !- Vertex 8 Xcoordinate
    54.65216964390129,        !- Vertex 8 Ycoordinate
    3,                        !- Vertex 8 Zcoordinate
    29.605322141665965,       !- Vertex 9 Xcoordinate
    54.42217774409801,        !- Vertex 9 Ycoordinate
    3,                        !- Vertex 9 Zcoordinate
    20.901560824830085,       !- Vertex 10 Xcoordinate
    51.55533633520827,        !- Vertex 10 Ycoordinate
    3,                        !- Vertex 10 Zcoordinate
    9.570166039746255,        !- Vertex 11 Xcoordinate
    44.73530222894624,        !- Vertex 11 Ycoordinate
    3,                        !- Vertex 11 Zcoordinate
    5.6150439879857,          !- Vertex 12 Xcoordinate
    41.1340618673712,         !- Vertex 12 Ycoordinate
    3,                        !- Vertex 12 Zcoordinate
    2.390575324650854,        !- Vertex 13 Xcoordinate
    35.41556950751692,        !- Vertex 13 Ycoordinate
    3,                        !- Vertex 13 Zcoordinate
    0,                        !- Vertex 14 Xcoordinate
    28.132691830862314,       !- Vertex 14 Ycoordinate
    3,                        !- Vertex 14 Zcoordinate
    0.703206873498857,        !- Vertex 15 Xcoordinate
    24.13097620755434,        !- Vertex 15 Ycoordinate
    3,                        !- Vertex 15 Zcoordinate
    4.22751755034551,         !- Vertex 16 Xcoordinate
    17.75980935851112,        !- Vertex 16 Ycoordinate
    3,                        !- Vertex 16 Zcoordinate
    11.168160954490304,       !- Vertex 17 Xcoordinate
    10.67363831680268,        !- Vertex 17 Ycoordinate
    3,                        !- Vertex 17 Zcoordinate
    19.65247668651864,        !- Vertex 18 Xcoordinate
    5.00635452568531,         !- Vertex 18 Ycoordinate
    3,                        !- Vertex 18 Zcoordinate
    27.69809632282704,        !- Vertex 19 Xcoordinate
    1.8955740747042,          !- Vertex 19 Ycoordinate
    3,                        !- Vertex 19 Zcoordinate
    36.04697936587036,        !- Vertex 20 Xcoordinate
    0,                        !- Vertex 20 Ycoordinate
    3,                        !- Vertex 20 Zcoordinate
    43.10226554563269,        !- Vertex 21 Xcoordinate
    0.7842511385679245,       !- Vertex 21 Ycoordinate
    3;                        !- Vertex 21 Zcoordinate

BUILDINGSURFACE:DETAILED,
    Block Poly_57_Administration Storey 1 Floor 0001_1,    !- Name
    Floor,                    !- Surface Type
    HSCWZ_Public&Industrial_1995_FloorSlab,    !- Construction Name
    Block Poly_57_Administration Storey 1,    !- Zone Name
    ,                         !- Space Name
    Surface,                  !- Outside Boundary Condition
    Block Poly_57_Administration Storey 0 Ceiling 0001_1,    !- Outside Boundary Condition Object
    NoSun,                    !- Sun Exposure
    NoWind,                   !- Wind Exposure
    autocalculate,            !- View Factor to Ground
    autocalculate,            !- Number of Vertices
    49.293459616135806,       !- Vertex 1 Xcoordinate
    46.81776582496241,        !- Vertex 1 Ycoordinate
    3,                        !- Vertex 1 Zcoordinate
    55.88727457728237,        !- Vertex 2 Xcoordinate
    35.523455287795514,       !- Vertex 2 Ycoordinate
    3,                        !- Vertex 2 Zcoordinate
    57.8647314212285,         !- Vertex 3 Xcoordinate
    27.51171887619421,        !- Vertex 3 Ycoordinate
    3,                        !- Vertex 3 Zcoordinate
    58.4808002486825,         !- Vertex 4 Xcoordinate
    17.524070274084806,       !- Vertex 4 Ycoordinate
    3,                        !- Vertex 4 Zcoordinate
    54.44659493956715,        !- Vertex 5 Xcoordinate
    8.49112764140591,         !- Vertex 5 Ycoordinate
    3,                        !- Vertex 5 Zcoordinate
    49.70754104061052,        !- Vertex 6 Xcoordinate
    3.3490470466203988,       !- Vertex 6 Ycoordinate
    3,                        !- Vertex 6 Zcoordinate
    43.10226554563269,        !- Vertex 7 Xcoordinate
    0.7842511385679245,       !- Vertex 7 Ycoordinate
    3,                        !- Vertex 7 Zcoordinate
    36.04697936587036,        !- Vertex 8 Xcoordinate
    0,                        !- Vertex 8 Ycoordinate
    3,                        !- Vertex 8 Zcoordinate
    27.69809632282704,        !- Vertex 9 Xcoordinate
    1.8955740747042,          !- Vertex 9 Ycoordinate
    3,                        !- Vertex 9 Zcoordinate
    19.65247668651864,        !- Vertex 10 Xcoordinate
    5.00635452568531,         !- Vertex 10 Ycoordinate
    3,                        !- Vertex 10 Zcoordinate
    11.168160954490304,       !- Vertex 11 Xcoordinate
    10.67363831680268,        !- Vertex 11 Ycoordinate
    3,                        !- Vertex 11 Zcoordinate
    4.22751755034551,         !- Vertex 12 Xcoordinate
    17.75980935851112,        !- Vertex 12 Ycoordinate
    3,                        !- Vertex 12 Zcoordinate
    0.703206873498857,        !- Vertex 13 Xcoordinate
    24.13097620755434,        !- Vertex 13 Ycoordinate
    3,                        !- Vertex 13 Zcoordinate
    0,                        !- Vertex 14 Xcoordinate
    28.132691830862314,       !- Vertex 14 Ycoordinate
    3,                        !- Vertex 14 Zcoordinate
    2.390575324650854,        !- Vertex 15 Xcoordinate
    35.41556950751692,        !- Vertex 15 Ycoordinate
    3,                        !- Vertex 15 Zcoordinate
    5.6150439879857,          !- Vertex 16 Xcoordinate
    41.1340618673712,         !- Vertex 16 Ycoordinate
    3,                        !- Vertex 16 Zcoordinate
    9.570166039746255,        !- Vertex 17 Xcoordinate
    44.73530222894624,        !- Vertex 17 Ycoordinate
    3,                        !- Vertex 17 Zcoordinate
    20.901560824830085,       !- Vertex 18 Xcoordinate
    51.55533633520827,        !- Vertex 18 Ycoordinate
    3,                        !- Vertex 18 Zcoordinate
    29.605322141665965,       !- Vertex 19 Xcoordinate
    54.42217774409801,        !- Vertex 19 Ycoordinate
    3,                        !- Vertex 19 Zcoordinate
    36.65250111091882,        !- Vertex 20 Xcoordinate
    54.65216964390129,        !- Vertex 20 Ycoordinate
    3,                        !- Vertex 20 Zcoordinate
    45.172305399086326,       !- Vertex 21 Xcoordinate
    51.42362080840394,        !- Vertex 21 Ycoordinate
    3;                        !- Vertex 21 Zcoordinate

BUILDINGSURFACE:DETAILED,
    Block Poly_57_Administration Storey 1 Ceiling 0001_1,    !- Name
    Ceiling,                  !- Surface Type
    HSCWZ_Public&Industrial_1995_FloorSlab,    !- Construction Name
    Block Poly_57_Administration Storey 1,    !- Zone Name
    ,                         !- Space Name
    Surface,                  !- Outside Boundary Condition
    Block Poly_57_Administration Storey 2 Floor 0001_1,    !- Outside Boundary Condition Object
    NoSun,                    !- Sun Exposure
    NoWind,                   !- Wind Exposure
    autocalculate,            !- View Factor to Ground
    autocalculate,            !- Number of Vertices
    49.70754104061052,        !- Vertex 1 Xcoordinate
    3.3490470466203988,       !- Vertex 1 Ycoordinate
    6,                        !- Vertex 1 Zcoordinate
    54.44659493956715,        !- Vertex 2 Xcoordinate
    8.49112764140591,         !- Vertex 2 Ycoordinate
    6,                        !- Vertex 2 Zcoordinate
    58.4808002486825,         !- Vertex 3 Xcoordinate
    17.524070274084806,       !- Vertex 3 Ycoordinate
    6,                        !- Vertex 3 Zcoordinate
    57.8647314212285,         !- Vertex 4 Xcoordinate
    27.51171887619421,        !- Vertex 4 Ycoordinate
    6,                        !- Vertex 4 Zcoordinate
    55.88727457728237,        !- Vertex 5 Xcoordinate
    35.523455287795514,       !- Vertex 5 Ycoordinate
    6,                        !- Vertex 5 Zcoordinate
    49.293459616135806,       !- Vertex 6 Xcoordinate
    46.81776582496241,        !- Vertex 6 Ycoordinate
    6,                        !- Vertex 6 Zcoordinate
    45.172305399086326,       !- Vertex 7 Xcoordinate
    51.42362080840394,        !- Vertex 7 Ycoordinate
    6,                        !- Vertex 7 Zcoordinate
    36.65250111091882,        !- Vertex 8 Xcoordinate
    54.65216964390129,        !- Vertex 8 Ycoordinate
    6,                        !- Vertex 8 Zcoordinate
    29.605322141665965,       !- Vertex 9 Xcoordinate
    54.42217774409801,        !- Vertex 9 Ycoordinate
    6,                        !- Vertex 9 Zcoordinate
    20.901560824830085,       !- Vertex 10 Xcoordinate
    51.55533633520827,        !- Vertex 10 Ycoordinate
    6,                        !- Vertex 10 Zcoordinate
    9.570166039746255,        !- Vertex 11 Xcoordinate
    44.73530222894624,        !- Vertex 11 Ycoordinate
    6,                        !- Vertex 11 Zcoordinate
    5.6150439879857,          !- Vertex 12 Xcoordinate
    41.1340618673712,         !- Vertex 12 Ycoordinate
    6,                        !- Vertex 12 Zcoordinate
    2.390575324650854,        !- Vertex 13 Xcoordinate
    35.41556950751692,        !- Vertex 13 Ycoordinate
    6,                        !- Vertex 13 Zcoordinate
    0,                        !- Vertex 14 Xcoordinate
    28.132691830862314,       !- Vertex 14 Ycoordinate
    6,                        !- Vertex 14 Zcoordinate
    0.703206873498857,        !- Vertex 15 Xcoordinate
    24.13097620755434,        !- Vertex 15 Ycoordinate
    6,                        !- Vertex 15 Zcoordinate
    4.22751755034551,         !- Vertex 16 Xcoordinate
    17.75980935851112,        !- Vertex 16 Ycoordinate
    6,                        !- Vertex 16 Zcoordinate
    11.168160954490304,       !- Vertex 17 Xcoordinate
    10.67363831680268,        !- Vertex 17 Ycoordinate
    6,                        !- Vertex 17 Zcoordinate
    19.65247668651864,        !- Vertex 18 Xcoordinate
    5.00635452568531,         !- Vertex 18 Ycoordinate
    6,                        !- Vertex 18 Zcoordinate
    27.69809632282704,        !- Vertex 19 Xcoordinate
    1.8955740747042,          !- Vertex 19 Ycoordinate
    6,                        !- Vertex 19 Zcoordinate
    36.04697936587036,        !- Vertex 20 Xcoordinate
    0,                        !- Vertex 20 Ycoordinate
    6,                        !- Vertex 20 Zcoordinate
    43.10226554563269,        !- Vertex 21 Xcoordinate
    0.7842511385679245,       !- Vertex 21 Ycoordinate
    6;                        !- Vertex 21 Zcoordinate

BUILDINGSURFACE:DETAILED,
    Block Poly_57_Administration Storey 2 Floor 0001_1,    !- Name
    Floor,                    !- Surface Type
    HSCWZ_Public&Industrial_1995_FloorSlab,    !- Construction Name
    Block Poly_57_Administration Storey 2,    !- Zone Name
    ,                         !- Space Name
    Surface,                  !- Outside Boundary Condition
    Block Poly_57_Administration Storey 1 Ceiling 0001_1,    !- Outside Boundary Condition Object
    NoSun,                    !- Sun Exposure
    NoWind,                   !- Wind Exposure
    autocalculate,            !- View Factor to Ground
    autocalculate,            !- Number of Vertices
    49.293459616135806,       !- Vertex 1 Xcoordinate
    46.81776582496241,        !- Vertex 1 Ycoordinate
    6,                        !- Vertex 1 Zcoordinate
    55.88727457728237,        !- Vertex 2 Xcoordinate
    35.523455287795514,       !- Vertex 2 Ycoordinate
    6,                        !- Vertex 2 Zcoordinate
    57.8647314212285,         !- Vertex 3 Xcoordinate
    27.51171887619421,        !- Vertex 3 Ycoordinate
    6,                        !- Vertex 3 Zcoordinate
    58.4808002486825,         !- Vertex 4 Xcoordinate
    17.524070274084806,       !- Vertex 4 Ycoordinate
    6,                        !- Vertex 4 Zcoordinate
    54.44659493956715,        !- Vertex 5 Xcoordinate
    8.49112764140591,         !- Vertex 5 Ycoordinate
    6,                        !- Vertex 5 Zcoordinate
    49.70754104061052,        !- Vertex 6 Xcoordinate
    3.3490470466203988,       !- Vertex 6 Ycoordinate
    6,                        !- Vertex 6 Zcoordinate
    43.10226554563269,        !- Vertex 7 Xcoordinate
    0.7842511385679245,       !- Vertex 7 Ycoordinate
    6,                        !- Vertex 7 Zcoordinate
    36.04697936587036,        !- Vertex 8 Xcoordinate
    0,                        !- Vertex 8 Ycoordinate
    6,                        !- Vertex 8 Zcoordinate
    27.69809632282704,        !- Vertex 9 Xcoordinate
    1.8955740747042,          !- Vertex 9 Ycoordinate
    6,                        !- Vertex 9 Zcoordinate
    19.65247668651864,        !- Vertex 10 Xcoordinate
    5.00635452568531,         !- Vertex 10 Ycoordinate
    6,                        !- Vertex 10 Zcoordinate
    11.168160954490304,       !- Vertex 11 Xcoordinate
    10.67363831680268,        !- Vertex 11 Ycoordinate
    6,                        !- Vertex 11 Zcoordinate
    4.22751755034551,         !- Vertex 12 Xcoordinate
    17.75980935851112,        !- Vertex 12 Ycoordinate
    6,                        !- Vertex 12 Zcoordinate
    0.703206873498857,        !- Vertex 13 Xcoordinate
    24.13097620755434,        !- Vertex 13 Ycoordinate
    6,                        !- Vertex 13 Zcoordinate
    0,                        !- Vertex 14 Xcoordinate
    28.132691830862314,       !- Vertex 14 Ycoordinate
    6,                        !- Vertex 14 Zcoordinate
    2.390575324650854,        !- Vertex 15 Xcoordinate
    35.41556950751692,        !- Vertex 15 Ycoordinate
    6,                        !- Vertex 15 Zcoordinate
    5.6150439879857,          !- Vertex 16 Xcoordinate
    41.1340618673712,         !- Vertex 16 Ycoordinate
    6,                        !- Vertex 16 Zcoordinate
    9.570166039746255,        !- Vertex 17 Xcoordinate
    44.73530222894624,        !- Vertex 17 Ycoordinate
    6,                        !- Vertex 17 Zcoordinate
    20.901560824830085,       !- Vertex 18 Xcoordinate
    51.55533633520827,        !- Vertex 18 Ycoordinate
    6,                        !- Vertex 18 Zcoordinate
    29.605322141665965,       !- Vertex 19 Xcoordinate
    54.42217774409801,        !- Vertex 19 Ycoordinate
    6,                        !- Vertex 19 Zcoordinate
    36.65250111091882,        !- Vertex 20 Xcoordinate
    54.65216964390129,        !- Vertex 20 Ycoordinate
    6,                        !- Vertex 20 Zcoordinate
    45.172305399086326,       !- Vertex 21 Xcoordinate
    51.42362080840394,        !- Vertex 21 Ycoordinate
    6;                        !- Vertex 21 Zcoordinate

BUILDINGSURFACE:DETAILED,
    Block Poly_57_Administration Storey 2 Ceiling 0001_1,    !- Name
    Ceiling,                  !- Surface Type
    HSCWZ_Public&Industrial_1995_FloorSlab,    !- Construction Name
    Block Poly_57_Administration Storey 2,    !- Zone Name
    ,                         !- Space Name
    Surface,                  !- Outside Boundary Condition
    Block Poly_57_Administration Storey 3 Floor 0001_1,    !- Outside Boundary Condition Object
    NoSun,                    !- Sun Exposure
    NoWind,                   !- Wind Exposure
    autocalculate,            !- View Factor to Ground
    autocalculate,            !- Number of Vertices
    49.70754104061052,        !- Vertex 1 Xcoordinate
    3.3490470466203988,       !- Vertex 1 Ycoordinate
    9,                        !- Vertex 1 Zcoordinate
    54.44659493956715,        !- Vertex 2 Xcoordinate
    8.49112764140591,         !- Vertex 2 Ycoordinate
    9,                        !- Vertex 2 Zcoordinate
    58.4808002486825,         !- Vertex 3 Xcoordinate
    17.524070274084806,       !- Vertex 3 Ycoordinate
    9,                        !- Vertex 3 Zcoordinate
    57.8647314212285,         !- Vertex 4 Xcoordinate
    27.51171887619421,        !- Vertex 4 Ycoordinate
    9,                        !- Vertex 4 Zcoordinate
    55.88727457728237,        !- Vertex 5 Xcoordinate
    35.523455287795514,       !- Vertex 5 Ycoordinate
    9,                        !- Vertex 5 Zcoordinate
    49.293459616135806,       !- Vertex 6 Xcoordinate
    46.81776582496241,        !- Vertex 6 Ycoordinate
    9,                        !- Vertex 6 Zcoordinate
    45.172305399086326,       !- Vertex 7 Xcoordinate
    51.42362080840394,        !- Vertex 7 Ycoordinate
    9,                        !- Vertex 7 Zcoordinate
    36.65250111091882,        !- Vertex 8 Xcoordinate
    54.65216964390129,        !- Vertex 8 Ycoordinate
    9,                        !- Vertex 8 Zcoordinate
    29.605322141665965,       !- Vertex 9 Xcoordinate
    54.42217774409801,        !- Vertex 9 Ycoordinate
    9,                        !- Vertex 9 Zcoordinate
    20.901560824830085,       !- Vertex 10 Xcoordinate
    51.55533633520827,        !- Vertex 10 Ycoordinate
    9,                        !- Vertex 10 Zcoordinate
    9.570166039746255,        !- Vertex 11 Xcoordinate
    44.73530222894624,        !- Vertex 11 Ycoordinate
    9,                        !- Vertex 11 Zcoordinate
    5.6150439879857,          !- Vertex 12 Xcoordinate
    41.1340618673712,         !- Vertex 12 Ycoordinate
    9,                        !- Vertex 12 Zcoordinate
    2.390575324650854,        !- Vertex 13 Xcoordinate
    35.41556950751692,        !- Vertex 13 Ycoordinate
    9,                        !- Vertex 13 Zcoordinate
    0,                        !- Vertex 14 Xcoordinate
    28.132691830862314,       !- Vertex 14 Ycoordinate
    9,                        !- Vertex 14 Zcoordinate
    0.703206873498857,        !- Vertex 15 Xcoordinate
    24.13097620755434,        !- Vertex 15 Ycoordinate
    9,                        !- Vertex 15 Zcoordinate
    4.22751755034551,         !- Vertex 16 Xcoordinate
    17.75980935851112,        !- Vertex 16 Ycoordinate
    9,                        !- Vertex 16 Zcoordinate
    11.168160954490304,       !- Vertex 17 Xcoordinate
    10.67363831680268,        !- Vertex 17 Ycoordinate
    9,                        !- Vertex 17 Zcoordinate
    19.65247668651864,        !- Vertex 18 Xcoordinate
    5.00635452568531,         !- Vertex 18 Ycoordinate
    9,                        !- Vertex 18 Zcoordinate
    27.69809632282704,        !- Vertex 19 Xcoordinate
    1.8955740747042,          !- Vertex 19 Ycoordinate
    9,                        !- Vertex 19 Zcoordinate
    36.04697936587036,        !- Vertex 20 Xcoordinate
    0,                        !- Vertex 20 Ycoordinate
    9,                        !- Vertex 20 Zcoordinate
    43.10226554563269,        !- Vertex 21 Xcoordinate
    0.7842511385679245,       !- Vertex 21 Ycoordinate
    9;                        !- Vertex 21 Zcoordinate

BUILDINGSURFACE:DETAILED,
    Block Poly_57_Administration Storey 3 Floor 0001_1,    !- Name
    Floor,                    !- Surface Type
    HSCWZ_Public&Industrial_1995_FloorSlab,    !- Construction Name
    Block Poly_57_Administration Storey 3,    !- Zone Name
    ,                         !- Space Name
    Surface,                  !- Outside Boundary Condition
    Block Poly_57_Administration Storey 2 Ceiling 0001_1,    !- Outside Boundary Condition Object
    NoSun,                    !- Sun Exposure
    NoWind,                   !- Wind Exposure
    autocalculate,            !- View Factor to Ground
    autocalculate,            !- Number of Vertices
    49.293459616135806,       !- Vertex 1 Xcoordinate
    46.81776582496241,        !- Vertex 1 Ycoordinate
    9,                        !- Vertex 1 Zcoordinate
    55.88727457728237,        !- Vertex 2 Xcoordinate
    35.523455287795514,       !- Vertex 2 Ycoordinate
    9,                        !- Vertex 2 Zcoordinate
    57.8647314212285,         !- Vertex 3 Xcoordinate
    27.51171887619421,        !- Vertex 3 Ycoordinate
    9,                        !- Vertex 3 Zcoordinate
    58.4808002486825,         !- Vertex 4 Xcoordinate
    17.524070274084806,       !- Vertex 4 Ycoordinate
    9,                        !- Vertex 4 Zcoordinate
    54.44659493956715,        !- Vertex 5 Xcoordinate
    8.49112764140591,         !- Vertex 5 Ycoordinate
    9,                        !- Vertex 5 Zcoordinate
    49.70754104061052,        !- Vertex 6 Xcoordinate
    3.3490470466203988,       !- Vertex 6 Ycoordinate
    9,                        !- Vertex 6 Zcoordinate
    43.10226554563269,        !- Vertex 7 Xcoordinate
    0.7842511385679245,       !- Vertex 7 Ycoordinate
    9,                        !- Vertex 7 Zcoordinate
    36.04697936587036,        !- Vertex 8 Xcoordinate
    0,                        !- Vertex 8 Ycoordinate
    9,                        !- Vertex 8 Zcoordinate
    27.69809632282704,        !- Vertex 9 Xcoordinate
    1.8955740747042,          !- Vertex 9 Ycoordinate
    9,                        !- Vertex 9 Zcoordinate
    19.65247668651864,        !- Vertex 10 Xcoordinate
    5.00635452568531,         !- Vertex 10 Ycoordinate
    9,                        !- Vertex 10 Zcoordinate
    11.168160954490304,       !- Vertex 11 Xcoordinate
    10.67363831680268,        !- Vertex 11 Ycoordinate
    9,                        !- Vertex 11 Zcoordinate
    4.22751755034551,         !- Vertex 12 Xcoordinate
    17.75980935851112,        !- Vertex 12 Ycoordinate
    9,                        !- Vertex 12 Zcoordinate
    0.703206873498857,        !- Vertex 13 Xcoordinate
    24.13097620755434,        !- Vertex 13 Ycoordinate
    9,                        !- Vertex 13 Zcoordinate
    0,                        !- Vertex 14 Xcoordinate
    28.132691830862314,       !- Vertex 14 Ycoordinate
    9,                        !- Vertex 14 Zcoordinate
    2.390575324650854,        !- Vertex 15 Xcoordinate
    35.41556950751692,        !- Vertex 15 Ycoordinate
    9,                        !- Vertex 15 Zcoordinate
    5.6150439879857,          !- Vertex 16 Xcoordinate
    41.1340618673712,         !- Vertex 16 Ycoordinate
    9,                        !- Vertex 16 Zcoordinate
    9.570166039746255,        !- Vertex 17 Xcoordinate
    44.73530222894624,        !- Vertex 17 Ycoordinate
    9,                        !- Vertex 17 Zcoordinate
    20.901560824830085,       !- Vertex 18 Xcoordinate
    51.55533633520827,        !- Vertex 18 Ycoordinate
    9,                        !- Vertex 18 Zcoordinate
    29.605322141665965,       !- Vertex 19 Xcoordinate
    54.42217774409801,        !- Vertex 19 Ycoordinate
    9,                        !- Vertex 19 Zcoordinate
    36.65250111091882,        !- Vertex 20 Xcoordinate
    54.65216964390129,        !- Vertex 20 Ycoordinate
    9,                        !- Vertex 20 Zcoordinate
    45.172305399086326,       !- Vertex 21 Xcoordinate
    51.42362080840394,        !- Vertex 21 Ycoordinate
    9;                        !- Vertex 21 Zcoordinate

BUILDINGSURFACE:DETAILED,
    Block Poly_57_Administration Storey 3 Ceiling 0001_1,    !- Name
    Ceiling,                  !- Surface Type
    HSCWZ_Public&Industrial_1995_FloorSlab,    !- Construction Name
    Block Poly_57_Administration Storey 3,    !- Zone Name
    ,                         !- Space Name
    Surface,                  !- Outside Boundary Condition
    Block Poly_57_Administration Storey 4 Floor 0001_1,    !- Outside Boundary Condition Object
    NoSun,                    !- Sun Exposure
    NoWind,                   !- Wind Exposure
    autocalculate,            !- View Factor to Ground
    autocalculate,            !- Number of Vertices
    49.70754104061052,        !- Vertex 1 Xcoordinate
    3.3490470466203988,       !- Vertex 1 Ycoordinate
    12,                       !- Vertex 1 Zcoordinate
    54.44659493956715,        !- Vertex 2 Xcoordinate
    8.49112764140591,         !- Vertex 2 Ycoordinate
    12,                       !- Vertex 2 Zcoordinate
    58.4808002486825,         !- Vertex 3 Xcoordinate
    17.524070274084806,       !- Vertex 3 Ycoordinate
    12,                       !- Vertex 3 Zcoordinate
    57.8647314212285,         !- Vertex 4 Xcoordinate
    27.51171887619421,        !- Vertex 4 Ycoordinate
    12,                       !- Vertex 4 Zcoordinate
    55.88727457728237,        !- Vertex 5 Xcoordinate
    35.523455287795514,       !- Vertex 5 Ycoordinate
    12,                       !- Vertex 5 Zcoordinate
    49.293459616135806,       !- Vertex 6 Xcoordinate
    46.81776582496241,        !- Vertex 6 Ycoordinate
    12,                       !- Vertex 6 Zcoordinate
    45.172305399086326,       !- Vertex 7 Xcoordinate
    51.42362080840394,        !- Vertex 7 Ycoordinate
    12,                       !- Vertex 7 Zcoordinate
    36.65250111091882,        !- Vertex 8 Xcoordinate
    54.65216964390129,        !- Vertex 8 Ycoordinate
    12,                       !- Vertex 8 Zcoordinate
    29.605322141665965,       !- Vertex 9 Xcoordinate
    54.42217774409801,        !- Vertex 9 Ycoordinate
    12,                       !- Vertex 9 Zcoordinate
    20.901560824830085,       !- Vertex 10 Xcoordinate
    51.55533633520827,        !- Vertex 10 Ycoordinate
    12,                       !- Vertex 10 Zcoordinate
    9.570166039746255,        !- Vertex 11 Xcoordinate
    44.73530222894624,        !- Vertex 11 Ycoordinate
    12,                       !- Vertex 11 Zcoordinate
    5.6150439879857,          !- Vertex 12 Xcoordinate
    41.1340618673712,         !- Vertex 12 Ycoordinate
    12,                       !- Vertex 12 Zcoordinate
    2.390575324650854,        !- Vertex 13 Xcoordinate
    35.41556950751692,        !- Vertex 13 Ycoordinate
    12,                       !- Vertex 13 Zcoordinate
    0,                        !- Vertex 14 Xcoordinate
    28.132691830862314,       !- Vertex 14 Ycoordinate
    12,                       !- Vertex 14 Zcoordinate
    0.703206873498857,        !- Vertex 15 Xcoordinate
    24.13097620755434,        !- Vertex 15 Ycoordinate
    12,                       !- Vertex 15 Zcoordinate
    4.22751755034551,         !- Vertex 16 Xcoordinate
    17.75980935851112,        !- Vertex 16 Ycoordinate
    12,                       !- Vertex 16 Zcoordinate
    11.168160954490304,       !- Vertex 17 Xcoordinate
    10.67363831680268,        !- Vertex 17 Ycoordinate
    12,                       !- Vertex 17 Zcoordinate
    19.65247668651864,        !- Vertex 18 Xcoordinate
    5.00635452568531,         !- Vertex 18 Ycoordinate
    12,                       !- Vertex 18 Zcoordinate
    27.69809632282704,        !- Vertex 19 Xcoordinate
    1.8955740747042,          !- Vertex 19 Ycoordinate
    12,                       !- Vertex 19 Zcoordinate
    36.04697936587036,        !- Vertex 20 Xcoordinate
    0,                        !- Vertex 20 Ycoordinate
    12,                       !- Vertex 20 Zcoordinate
    43.10226554563269,        !- Vertex 21 Xcoordinate
    0.7842511385679245,       !- Vertex 21 Ycoordinate
    12;                       !- Vertex 21 Zcoordinate

BUILDINGSURFACE:DETAILED,
    Block Poly_57_Administration Storey 4 Floor 0001_1,    !- Name
    Floor,                    !- Surface Type
    HSCWZ_Public&Industrial_1995_FloorSlab,    !- Construction Name
    Block Poly_57_Administration Storey 4,    !- Zone Name
    ,                         !- Space Name
    Surface,                  !- Outside Boundary Condition
    Block Poly_57_Administration Storey 3 Ceiling 0001_1,    !- Outside Boundary Condition Object
    NoSun,                    !- Sun Exposure
    NoWind,                   !- Wind Exposure
    autocalculate,            !- View Factor to Ground
    autocalculate,            !- Number of Vertices
    49.293459616135806,       !- Vertex 1 Xcoordinate
    46.81776582496241,        !- Vertex 1 Ycoordinate
    12,                       !- Vertex 1 Zcoordinate
    55.88727457728237,        !- Vertex 2 Xcoordinate
    35.523455287795514,       !- Vertex 2 Ycoordinate
    12,                       !- Vertex 2 Zcoordinate
    57.8647314212285,         !- Vertex 3 Xcoordinate
    27.51171887619421,        !- Vertex 3 Ycoordinate
    12,                       !- Vertex 3 Zcoordinate
    58.4808002486825,         !- Vertex 4 Xcoordinate
    17.524070274084806,       !- Vertex 4 Ycoordinate
    12,                       !- Vertex 4 Zcoordinate
    54.44659493956715,        !- Vertex 5 Xcoordinate
    8.49112764140591,         !- Vertex 5 Ycoordinate
    12,                       !- Vertex 5 Zcoordinate
    49.70754104061052,        !- Vertex 6 Xcoordinate
    3.3490470466203988,       !- Vertex 6 Ycoordinate
    12,                       !- Vertex 6 Zcoordinate
    43.10226554563269,        !- Vertex 7 Xcoordinate
    0.7842511385679245,       !- Vertex 7 Ycoordinate
    12,                       !- Vertex 7 Zcoordinate
    36.04697936587036,        !- Vertex 8 Xcoordinate
    0,                        !- Vertex 8 Ycoordinate
    12,                       !- Vertex 8 Zcoordinate
    27.69809632282704,        !- Vertex 9 Xcoordinate
    1.8955740747042,          !- Vertex 9 Ycoordinate
    12,                       !- Vertex 9 Zcoordinate
    19.65247668651864,        !- Vertex 10 Xcoordinate
    5.00635452568531,         !- Vertex 10 Ycoordinate
    12,                       !- Vertex 10 Zcoordinate
    11.168160954490304,       !- Vertex 11 Xcoordinate
    10.67363831680268,        !- Vertex 11 Ycoordinate
    12,                       !- Vertex 11 Zcoordinate
    4.22751755034551,         !- Vertex 12 Xcoordinate
    17.75980935851112,        !- Vertex 12 Ycoordinate
    12,                       !- Vertex 12 Zcoordinate
    0.703206873498857,        !- Vertex 13 Xcoordinate
    24.13097620755434,        !- Vertex 13 Ycoordinate
    12,                       !- Vertex 13 Zcoordinate
    0,                        !- Vertex 14 Xcoordinate
    28.132691830862314,       !- Vertex 14 Ycoordinate
    12,                       !- Vertex 14 Zcoordinate
    2.390575324650854,        !- Vertex 15 Xcoordinate
    35.41556950751692,        !- Vertex 15 Ycoordinate
    12,                       !- Vertex 15 Zcoordinate
    5.6150439879857,          !- Vertex 16 Xcoordinate
    41.1340618673712,         !- Vertex 16 Ycoordinate
    12,                       !- Vertex 16 Zcoordinate
    9.570166039746255,        !- Vertex 17 Xcoordinate
    44.73530222894624,        !- Vertex 17 Ycoordinate
    12,                       !- Vertex 17 Zcoordinate
    20.901560824830085,       !- Vertex 18 Xcoordinate
    51.55533633520827,        !- Vertex 18 Ycoordinate
    12,                       !- Vertex 18 Zcoordinate
    29.605322141665965,       !- Vertex 19 Xcoordinate
    54.42217774409801,        !- Vertex 19 Ycoordinate
    12,                       !- Vertex 19 Zcoordinate
    36.65250111091882,        !- Vertex 20 Xcoordinate
    54.65216964390129,        !- Vertex 20 Ycoordinate
    12,                       !- Vertex 20 Zcoordinate
    45.172305399086326,       !- Vertex 21 Xcoordinate
    51.42362080840394,        !- Vertex 21 Ycoordinate
    12;                       !- Vertex 21 Zcoordinate

FENESTRATIONSURFACE:DETAILED,
    Block Poly_57_Administration Storey 0 Wall 0001 window,    !- Name
    Window,                   !- Surface Type
    HSCWZ_Public&Industrial_1995_Win,    !- Construction Name
    Block Poly_57_Administration Storey 0 Wall 0001,    !- Building Surface Name
    ,                         !- Outside Boundary Condition Object
    autocalculate,            !- View Factor to Ground
    ,                         !- Frame and Divider Name
    1,                        !- Multiplier
    autocalculate,            !- Number of Vertices
    9.568188478894967,        !- Vertex 1 Xcoordinate
    44.73350160876545,        !- Vertex 1 Ycoordinate
    2.025,                    !- Vertex 1 Zcoordinate
    9.568188478894967,        !- Vertex 2 Xcoordinate
    44.73350160876545,        !- Vertex 2 Ycoordinate
    0.9750000000000001,       !- Vertex 2 Zcoordinate
    5.617021549128025,        !- Vertex 3 Xcoordinate
    41.13586248755199,        !- Vertex 3 Ycoordinate
    0.9750000000000001,       !- Vertex 3 Zcoordinate
    5.617021549128025,        !- Vertex 4 Xcoordinate
    41.13586248755199,        !- Vertex 4 Ycoordinate
    2.025;                    !- Vertex 4 Zcoordinate

FENESTRATIONSURFACE:DETAILED,
    Block Poly_57_Administration Storey 0 Wall 0002 window,    !- Name
    Window,                   !- Surface Type
    HSCWZ_Public&Industrial_1995_Win,    !- Construction Name
    Block Poly_57_Administration Storey 0 Wall 0002,    !- Building Surface Name
    ,                         !- Outside Boundary Condition Object
    autocalculate,            !- View Factor to Ground
    ,                         !- Frame and Divider Name
    1,                        !- Multiplier
    autocalculate,            !- Number of Vertices
    5.613431753770507,        !- Vertex 1 Xcoordinate
    41.13120262119128,        !- Vertex 1 Ycoordinate
    2.025,                    !- Vertex 1 Zcoordinate
    5.613431753770507,        !- Vertex 2 Xcoordinate
    41.13120262119128,        !- Vertex 2 Ycoordinate
    0.9750000000000001,       !- Vertex 2 Zcoordinate
    2.3921875592152935,       !- Vertex 3 Xcoordinate
    35.418428753696844,       !- Vertex 3 Ycoordinate
    0.9750000000000001,       !- Vertex 3 Zcoordinate
    2.3921875592152935,       !- Vertex 4 Xcoordinate
    35.418428753696844,       !- Vertex 4 Ycoordinate
    2.025;                    !- Vertex 4 Zcoordinate

FENESTRATIONSURFACE:DETAILED,
    Block Poly_57_Administration Storey 0 Wall 0003 window,    !- Name
    Window,                   !- Surface Type
    HSCWZ_Public&Industrial_1995_Win,    !- Construction Name
    Block Poly_57_Administration Storey 0 Wall 0003,    !- Building Surface Name
    ,                         !- Outside Boundary Condition Object
    autocalculate,            !- View Factor to Ground
    ,                         !- Frame and Divider Name
    1,                        !- Multiplier
    autocalculate,            !- Number of Vertices
    2.3893800372212426,       !- Vertex 1 Xcoordinate
    35.411928068678826,       !- Vertex 1 Ycoordinate
    2.025,                    !- Vertex 1 Zcoordinate
    2.3893800372212426,       !- Vertex 2 Xcoordinate
    35.411928068678826,       !- Vertex 2 Ycoordinate
    0.9750000000000001,       !- Vertex 2 Zcoordinate
    0.001195288,              !- Vertex 3 Xcoordinate
    28.136333270166066,       !- Vertex 3 Ycoordinate
    0.9750000000000001,       !- Vertex 3 Zcoordinate
    0.001195288,              !- Vertex 4 Xcoordinate
    28.136333270166066,       !- Vertex 4 Ycoordinate
    2.025;                    !- Vertex 4 Zcoordinate

FENESTRATIONSURFACE:DETAILED,
    Block Poly_57_Administration Storey 0 Wall 0004 window,    !- Name
    Window,                   !- Surface Type
    HSCWZ_Public&Industrial_1995_Win,    !- Construction Name
    Block Poly_57_Administration Storey 0 Wall 0004,    !- Building Surface Name
    ,                         !- Outside Boundary Condition Object
    autocalculate,            !- View Factor to Ground
    ,                         !- Frame and Divider Name
    1,                        !- Multiplier
    autocalculate,            !- Number of Vertices
    0.0003516034,             !- Vertex 1 Xcoordinate
    28.130690973516085,       !- Vertex 1 Ycoordinate
    2.025,                    !- Vertex 1 Zcoordinate
    0.0003516034,             !- Vertex 2 Xcoordinate
    28.130690973516085,       !- Vertex 2 Ycoordinate
    0.9750000000000001,       !- Vertex 2 Zcoordinate
    0.7028552701784647,       !- Vertex 3 Xcoordinate
    24.132977065366227,       !- Vertex 3 Ycoordinate
    0.9750000000000001,       !- Vertex 3 Zcoordinate
    0.7028552701784647,       !- Vertex 4 Xcoordinate
    24.132977065366227,       !- Vertex 4 Ycoordinate
    2.025;                    !- Vertex 4 Zcoordinate

FENESTRATIONSURFACE:DETAILED,
    Block Poly_57_Administration Storey 0 Wall 0005 window,    !- Name
    Window,                   !- Surface Type
    HSCWZ_Public&Industrial_1995_Win,    !- Construction Name
    Block Poly_57_Administration Storey 0 Wall 0005,    !- Building Surface Name
    ,                         !- Outside Boundary Condition Object
    autocalculate,            !- View Factor to Ground
    ,                         !- Frame and Divider Name
    1,                        !- Multiplier
    autocalculate,            !- Number of Vertices
    0.7049690289538413,       !- Vertex 1 Xcoordinate
    24.12779062412982,        !- Vertex 1 Ycoordinate
    2.025,                    !- Vertex 1 Zcoordinate
    0.7049690289538413,       !- Vertex 2 Xcoordinate
    24.12779062412982,        !- Vertex 2 Ycoordinate
    0.9750000000000001,       !- Vertex 2 Zcoordinate
    4.225755395414395,        !- Vertex 3 Xcoordinate
    17.76299494193564,        !- Vertex 3 Ycoordinate
    0.9750000000000001,       !- Vertex 3 Zcoordinate
    4.225755395414395,        !- Vertex 4 Xcoordinate
    17.76299494193564,        !- Vertex 4 Ycoordinate
    2.025;                    !- Vertex 4 Zcoordinate

FENESTRATIONSURFACE:DETAILED,
    Block Poly_57_Administration Storey 0 Wall 0006 window,    !- Name
    Window,                   !- Surface Type
    HSCWZ_Public&Industrial_1995_Win,    !- Construction Name
    Block Poly_57_Administration Storey 0 Wall 0006,    !- Building Surface Name
    ,                         !- Outside Boundary Condition Object
    autocalculate,            !- View Factor to Ground
    ,                         !- Frame and Divider Name
    1,                        !- Multiplier
    autocalculate,            !- Number of Vertices
    4.230987872454833,        !- Vertex 1 Xcoordinate
    17.756266272990267,       !- Vertex 1 Ycoordinate
    2.025,                    !- Vertex 1 Zcoordinate
    4.230987872454833,        !- Vertex 2 Xcoordinate
    17.756266272990267,       !- Vertex 2 Ycoordinate
    0.9750000000000001,       !- Vertex 2 Zcoordinate
    11.164690632788435,       !- Vertex 3 Xcoordinate
    10.677181402323534,       !- Vertex 3 Ycoordinate
    0.9750000000000001,       !- Vertex 3 Zcoordinate
    11.164690632788435,       !- Vertex 4 Xcoordinate
    10.677181402323534,       !- Vertex 4 Ycoordinate
    2.025;                    !- Vertex 4 Zcoordinate

FENESTRATIONSURFACE:DETAILED,
    Block Poly_57_Administration Storey 0 Wall 0007 window,    !- Name
    Window,                   !- Surface Type
    HSCWZ_Public&Industrial_1995_Win,    !- Construction Name
    Block Poly_57_Administration Storey 0 Wall 0007,    !- Building Surface Name
    ,                         !- Outside Boundary Condition Object
    autocalculate,            !- View Factor to Ground
    ,                         !- Frame and Divider Name
    1,                        !- Multiplier
    autocalculate,            !- Number of Vertices
    11.172403112356522,       !- Vertex 1 Xcoordinate
    10.67080467490712,        !- Vertex 1 Ycoordinate
    2.025,                    !- Vertex 1 Zcoordinate
    11.172403112356522,       !- Vertex 2 Xcoordinate
    10.67080467490712,        !- Vertex 2 Ycoordinate
    0.9750000000000001,       !- Vertex 2 Zcoordinate
    19.648234529059877,       !- Vertex 3 Xcoordinate
    5.009188167580869,        !- Vertex 3 Ycoordinate
    0.9750000000000001,       !- Vertex 3 Zcoordinate
    19.648234529059877,       !- Vertex 4 Xcoordinate
    5.009188167580869,        !- Vertex 4 Ycoordinate
    2.025;                    !- Vertex 4 Zcoordinate

FENESTRATIONSURFACE:DETAILED,
    Block Poly_57_Administration Storey 0 Wall 0008 window,    !- Name
    Window,                   !- Surface Type
    HSCWZ_Public&Industrial_1995_Win,    !- Construction Name
    Block Poly_57_Administration Storey 0 Wall 0008,    !- Building Surface Name
    ,                         !- Outside Boundary Condition Object
    autocalculate,            !- View Factor to Ground
    ,                         !- Frame and Divider Name
    1,                        !- Multiplier
    autocalculate,            !- Number of Vertices
    19.656499496744217,       !- Vertex 1 Xcoordinate
    5.00479913545982,         !- Vertex 1 Ycoordinate
    2.025,                    !- Vertex 1 Zcoordinate
    19.656499496744217,       !- Vertex 2 Xcoordinate
    5.00479913545982,         !- Vertex 2 Ycoordinate
    0.9750000000000001,       !- Vertex 2 Zcoordinate
    27.694073513358163,       !- Vertex 3 Xcoordinate
    1.8971294649296906,       !- Vertex 3 Ycoordinate
    0.9750000000000001,       !- Vertex 3 Zcoordinate
    27.694073513358163,       !- Vertex 4 Xcoordinate
    1.8971294649296906,       !- Vertex 4 Ycoordinate
    2.025;                    !- Vertex 4 Zcoordinate

FENESTRATIONSURFACE:DETAILED,
    Block Poly_57_Administration Storey 0 Wall 0009 window,    !- Name
    Window,                   !- Surface Type
    HSCWZ_Public&Industrial_1995_Win,    !- Construction Name
    Block Poly_57_Administration Storey 0 Wall 0009,    !- Building Surface Name
    ,                         !- Outside Boundary Condition Object
    autocalculate,            !- View Factor to Ground
    ,                         !- Frame and Divider Name
    1,                        !- Multiplier
    autocalculate,            !- Number of Vertices
    27.702270764697808,       !- Vertex 1 Xcoordinate
    1.8946262876668478,       !- Vertex 1 Ycoordinate
    2.025,                    !- Vertex 1 Zcoordinate
    27.702270764697808,       !- Vertex 2 Xcoordinate
    1.8946262876668478,       !- Vertex 2 Ycoordinate
    0.9750000000000001,       !- Vertex 2 Zcoordinate
    36.04280492469808,        !- Vertex 3 Xcoordinate
    0.000947787,              !- Vertex 3 Ycoordinate
    0.9750000000000001,       !- Vertex 3 Zcoordinate
    36.04280492469808,        !- Vertex 4 Xcoordinate
    0.000947787,              !- Vertex 4 Ycoordinate
    2.025;                    !- Vertex 4 Zcoordinate

FENESTRATIONSURFACE:DETAILED,
    Block Poly_57_Administration Storey 0 Wall 0010 window,    !- Name
    Window,                   !- Surface Type
    HSCWZ_Public&Industrial_1995_Win,    !- Construction Name
    Block Poly_57_Administration Storey 0 Wall 0010,    !- Building Surface Name
    ,                         !- Outside Boundary Condition Object
    autocalculate,            !- View Factor to Ground
    ,                         !- Frame and Divider Name
    1,                        !- Multiplier
    autocalculate,            !- Number of Vertices
    36.050507009309456,       !- Vertex 1 Xcoordinate
    0.0003921256,             !- Vertex 1 Ycoordinate
    2.025,                    !- Vertex 1 Zcoordinate
    36.050507009309456,       !- Vertex 2 Xcoordinate
    0.0003921256,             !- Vertex 2 Ycoordinate
    0.9750000000000001,       !- Vertex 2 Zcoordinate
    43.098737902833875,       !- Vertex 3 Xcoordinate
    0.7838590129986405,       !- Vertex 3 Ycoordinate
    0.9750000000000001,       !- Vertex 3 Zcoordinate
    43.098737902833875,       !- Vertex 4 Xcoordinate
    0.7838590129986405,       !- Vertex 4 Ycoordinate
    2.025;                    !- Vertex 4 Zcoordinate

FENESTRATIONSURFACE:DETAILED,
    Block Poly_57_Administration Storey 0 Wall 0011 window,    !- Name
    Window,                   !- Surface Type
    HSCWZ_Public&Industrial_1995_Win,    !- Construction Name
    Block Poly_57_Administration Storey 0 Wall 0011,    !- Building Surface Name
    ,                         !- Outside Boundary Condition Object
    autocalculate,            !- View Factor to Ground
    ,                         !- Frame and Divider Name
    1,                        !- Multiplier
    autocalculate,            !- Number of Vertices
    43.10556818367119,        !- Vertex 1 Xcoordinate
    0.7855335365219507,       !- Vertex 1 Ycoordinate
    2.025,                    !- Vertex 1 Zcoordinate
    43.10556818367119,        !- Vertex 2 Xcoordinate
    0.7855335365219507,       !- Vertex 2 Ycoordinate
    0.9750000000000001,       !- Vertex 2 Zcoordinate
    49.70423840309589,        !- Vertex 3 Xcoordinate
    3.347764648666373,        !- Vertex 3 Ycoordinate
    0.9750000000000001,       !- Vertex 3 Zcoordinate
    49.70423840309589,        !- Vertex 4 Xcoordinate
    3.347764648666373,        !- Vertex 4 Ycoordinate
    2.025;                    !- Vertex 4 Zcoordinate

FENESTRATIONSURFACE:DETAILED,
    Block Poly_57_Administration Storey 0 Wall 0012 window,    !- Name
    Window,                   !- Surface Type
    HSCWZ_Public&Industrial_1995_Win,    !- Construction Name
    Block Poly_57_Administration Storey 0 Wall 0012,    !- Building Surface Name
    ,                         !- Outside Boundary Condition Object
    autocalculate,            !- View Factor to Ground
    ,                         !- Frame and Divider Name
    1,                        !- Multiplier
    autocalculate,            !- Number of Vertices
    49.70991056779289,        !- Vertex 1 Xcoordinate
    3.3516180869177914,       !- Vertex 1 Ycoordinate
    2.025,                    !- Vertex 1 Zcoordinate
    49.70991056779289,        !- Vertex 2 Xcoordinate
    3.3516180869177914,       !- Vertex 2 Ycoordinate
    0.9750000000000001,       !- Vertex 2 Zcoordinate
    54.444225412966865,       !- Vertex 3 Xcoordinate
    8.488556601108517,        !- Vertex 3 Ycoordinate
    0.9750000000000001,       !- Vertex 3 Zcoordinate
    54.444225412966865,       !- Vertex 4 Xcoordinate
    8.488556601108517,        !- Vertex 4 Ycoordinate
    2.025;                    !- Vertex 4 Zcoordinate

FENESTRATIONSURFACE:DETAILED,
    Block Poly_57_Administration Storey 0 Wall 0013 window,    !- Name
    Window,                   !- Surface Type
    HSCWZ_Public&Industrial_1995_Win,    !- Construction Name
    Block Poly_57_Administration Storey 0 Wall 0013,    !- Building Surface Name
    ,                         !- Outside Boundary Condition Object
    autocalculate,            !- View Factor to Ground
    ,                         !- Frame and Divider Name
    1,                        !- Multiplier
    autocalculate,            !- Number of Vertices
    54.44861204257079,        !- Vertex 1 Xcoordinate
    8.49564411272225,         !- Vertex 1 Ycoordinate
    2.025,                    !- Vertex 1 Zcoordinate
    54.44861204257079,        !- Vertex 2 Xcoordinate
    8.49564411272225,         !- Vertex 2 Ycoordinate
    0.9750000000000001,       !- Vertex 2 Zcoordinate
    58.478783146028114,       !- Vertex 3 Xcoordinate
    17.519553802768467,       !- Vertex 3 Ycoordinate
    0.9750000000000001,       !- Vertex 3 Zcoordinate
    58.478783146028114,       !- Vertex 4 Xcoordinate
    17.519553802768467,       !- Vertex 4 Ycoordinate
    2.025;                    !- Vertex 4 Zcoordinate

FENESTRATIONSURFACE:DETAILED,
    Block Poly_57_Administration Storey 0 Wall 0014 window,    !- Name
    Window,                   !- Surface Type
    HSCWZ_Public&Industrial_1995_Win,    !- Construction Name
    Block Poly_57_Administration Storey 0 Wall 0014,    !- Building Surface Name
    ,                         !- Outside Boundary Condition Object
    autocalculate,            !- View Factor to Ground
    ,                         !- Frame and Divider Name
    1,                        !- Multiplier
    autocalculate,            !- Number of Vertices
    58.48049221426883,        !- Vertex 1 Xcoordinate
    17.52906409838586,        !- Vertex 1 Ycoordinate
    2.025,                    !- Vertex 1 Zcoordinate
    58.48049221426883,        !- Vertex 2 Xcoordinate
    17.52906409838586,        !- Vertex 2 Ycoordinate
    0.9750000000000001,       !- Vertex 2 Zcoordinate
    57.865039455758584,       !- Vertex 3 Xcoordinate
    27.506725051893156,       !- Vertex 3 Ycoordinate
    0.9750000000000001,       !- Vertex 3 Zcoordinate
    57.865039455758584,       !- Vertex 4 Xcoordinate
    27.506725051893156,       !- Vertex 4 Ycoordinate
    2.025;                    !- Vertex 4 Zcoordinate

FENESTRATIONSURFACE:DETAILED,
    Block Poly_57_Administration Storey 0 Wall 0015 window,    !- Name
    Window,                   !- Surface Type
    HSCWZ_Public&Industrial_1995_Win,    !- Construction Name
    Block Poly_57_Administration Storey 0 Wall 0015,    !- Building Surface Name
    ,                         !- Outside Boundary Condition Object
    autocalculate,            !- View Factor to Ground
    ,                         !- Frame and Divider Name
    1,                        !- Multiplier
    autocalculate,            !- Number of Vertices
    57.863742692922884,       !- Vertex 1 Xcoordinate
    27.51572474440001,        !- Vertex 1 Ycoordinate
    2.025,                    !- Vertex 1 Zcoordinate
    57.863742692922884,       !- Vertex 2 Xcoordinate
    27.51572474440001,        !- Vertex 2 Ycoordinate
    0.9750000000000001,       !- Vertex 2 Zcoordinate
    55.8882633057044,         !- Vertex 3 Xcoordinate
    35.51944941958971,        !- Vertex 3 Ycoordinate
    0.9750000000000001,       !- Vertex 3 Zcoordinate
    55.8882633057044,         !- Vertex 4 Xcoordinate
    35.51944941958971,        !- Vertex 4 Ycoordinate
    2.025;                    !- Vertex 4 Zcoordinate

FENESTRATIONSURFACE:DETAILED,
    Block Poly_57_Administration Storey 0 Wall 0016 window,    !- Name
    Window,                   !- Surface Type
    HSCWZ_Public&Industrial_1995_Win,    !- Construction Name
    Block Poly_57_Administration Storey 0 Wall 0016,    !- Building Surface Name
    ,                         !- Outside Boundary Condition Object
    autocalculate,            !- View Factor to Ground
    ,                         !- Frame and Divider Name
    1,                        !- Multiplier
    autocalculate,            !- Number of Vertices
    55.88397766980194,        !- Vertex 1 Xcoordinate
    35.5291024430641,         !- Vertex 1 Ycoordinate
    2.025,                    !- Vertex 1 Zcoordinate
    55.88397766980194,        !- Vertex 2 Xcoordinate
    35.5291024430641,         !- Vertex 2 Ycoordinate
    0.9750000000000001,       !- Vertex 2 Zcoordinate
    49.29675652390728,        !- Vertex 3 Xcoordinate
    46.812118669693824,       !- Vertex 3 Ycoordinate
    0.9750000000000001,       !- Vertex 3 Zcoordinate
    49.29675652390728,        !- Vertex 4 Xcoordinate
    46.812118669693824,       !- Vertex 4 Ycoordinate
    2.025;                    !- Vertex 4 Zcoordinate

FENESTRATIONSURFACE:DETAILED,
    Block Poly_57_Administration Storey 0 Wall 0017 window,    !- Name
    Window,                   !- Surface Type
    HSCWZ_Public&Industrial_1995_Win,    !- Construction Name
    Block Poly_57_Administration Storey 0 Wall 0017,    !- Building Surface Name
    ,                         !- Outside Boundary Condition Object
    autocalculate,            !- View Factor to Ground
    ,                         !- Frame and Divider Name
    1,                        !- Multiplier
    autocalculate,            !- Number of Vertices
    49.29139903931818,        !- Vertex 1 Xcoordinate
    46.82006875245413,        !- Vertex 1 Ycoordinate
    2.025,                    !- Vertex 1 Zcoordinate
    49.29139903931818,        !- Vertex 2 Xcoordinate
    46.82006875245413,        !- Vertex 2 Ycoordinate
    0.9750000000000001,       !- Vertex 2 Zcoordinate
    45.174365976195,          !- Vertex 3 Xcoordinate
    51.42131788091222,        !- Vertex 3 Ycoordinate
    0.9750000000000001,       !- Vertex 3 Zcoordinate
    45.174365976195,          !- Vertex 4 Xcoordinate
    51.42131788091222,        !- Vertex 4 Ycoordinate
    2.025;                    !- Vertex 4 Zcoordinate

FENESTRATIONSURFACE:DETAILED,
    Block Poly_57_Administration Storey 0 Wall 0018 window,    !- Name
    Window,                   !- Surface Type
    HSCWZ_Public&Industrial_1995_Win,    !- Construction Name
    Block Poly_57_Administration Storey 0 Wall 0018,    !- Building Surface Name
    ,                         !- Outside Boundary Condition Object
    autocalculate,            !- View Factor to Ground
    ,                         !- Frame and Divider Name
    1,                        !- Multiplier
    autocalculate,            !- Number of Vertices
    45.16804549694242,        !- Vertex 1 Xcoordinate
    51.425235082821686,       !- Vertex 1 Ycoordinate
    2.025,                    !- Vertex 1 Zcoordinate
    45.16804549694242,        !- Vertex 2 Xcoordinate
    51.425235082821686,       !- Vertex 2 Ycoordinate
    0.9750000000000001,       !- Vertex 2 Zcoordinate
    36.65676101341198,        !- Vertex 3 Xcoordinate
    54.65055536948354,        !- Vertex 3 Ycoordinate
    0.9750000000000001,       !- Vertex 3 Zcoordinate
    36.65676101341198,        !- Vertex 4 Xcoordinate
    54.65055536948354,        !- Vertex 4 Ycoordinate
    2.025;                    !- Vertex 4 Zcoordinate

FENESTRATIONSURFACE:DETAILED,
    Block Poly_57_Administration Storey 0 Wall 0019 window,    !- Name
    Window,                   !- Surface Type
    HSCWZ_Public&Industrial_1995_Win,    !- Construction Name
    Block Poly_57_Administration Storey 0 Wall 0019,    !- Building Surface Name
    ,                         !- Outside Boundary Condition Object
    autocalculate,            !- View Factor to Ground
    ,                         !- Frame and Divider Name
    1,                        !- Multiplier
    autocalculate,            !- Number of Vertices
    36.64897752178327,        !- Vertex 1 Xcoordinate
    54.65205464795139,        !- Vertex 1 Ycoordinate
    2.025,                    !- Vertex 1 Zcoordinate
    36.64897752178327,        !- Vertex 2 Xcoordinate
    54.65205464795139,        !- Vertex 2 Ycoordinate
    0.9750000000000001,       !- Vertex 2 Zcoordinate
    29.608845731150765,       !- Vertex 3 Xcoordinate
    54.42229274004791,        !- Vertex 3 Ycoordinate
    0.9750000000000001,       !- Vertex 3 Zcoordinate
    29.608845731150765,       !- Vertex 4 Xcoordinate
    54.42229274004791,        !- Vertex 4 Ycoordinate
    2.025;                    !- Vertex 4 Zcoordinate

FENESTRATIONSURFACE:DETAILED,
    Block Poly_57_Administration Storey 0 Wall 0020 window,    !- Name
    Window,                   !- Surface Type
    HSCWZ_Public&Industrial_1995_Win,    !- Construction Name
    Block Poly_57_Administration Storey 0 Wall 0020,    !- Building Surface Name
    ,                         !- Outside Boundary Condition Object
    autocalculate,            !- View Factor to Ground
    ,                         !- Frame and Divider Name
    1,                        !- Multiplier
    autocalculate,            !- Number of Vertices
    29.600970261007692,       !- Vertex 1 Xcoordinate
    54.42074432339356,        !- Vertex 1 Ycoordinate
    2.025,                    !- Vertex 1 Zcoordinate
    29.600970261007692,       !- Vertex 2 Xcoordinate
    54.42074432339356,        !- Vertex 2 Ycoordinate
    0.9750000000000001,       !- Vertex 2 Zcoordinate
    20.905912705779397,       !- Vertex 3 Xcoordinate
    51.55676975591271,        !- Vertex 3 Ycoordinate
    0.9750000000000001,       !- Vertex 3 Zcoordinate
    20.905912705779397,       !- Vertex 4 Xcoordinate
    51.55676975591271,        !- Vertex 4 Ycoordinate
    2.025;                    !- Vertex 4 Zcoordinate

FENESTRATIONSURFACE:DETAILED,
    Block Poly_57_Administration Storey 0 Wall 0021 window,    !- Name
    Window,                   !- Surface Type
    HSCWZ_Public&Industrial_1995_Win,    !- Construction Name
    Block Poly_57_Administration Storey 0 Wall 0021,    !- Building Surface Name
    ,                         !- Outside Boundary Condition Object
    autocalculate,            !- View Factor to Ground
    ,                         !- Frame and Divider Name
    1,                        !- Multiplier
    autocalculate,            !- Number of Vertices
    20.895895127728522,       !- Vertex 1 Xcoordinate
    51.55192631815514,        !- Vertex 1 Ycoordinate
    2.025,                    !- Vertex 1 Zcoordinate
    20.895895127728522,       !- Vertex 2 Xcoordinate
    51.55192631815514,        !- Vertex 2 Ycoordinate
    0.9750000000000001,       !- Vertex 2 Zcoordinate
    9.575831737313479,        !- Vertex 3 Xcoordinate
    44.738712245999366,       !- Vertex 3 Ycoordinate
    0.9750000000000001,       !- Vertex 3 Zcoordinate
    9.575831737313479,        !- Vertex 4 Xcoordinate
    44.738712245999366,       !- Vertex 4 Ycoordinate
    2.025;                    !- Vertex 4 Zcoordinate

FENESTRATIONSURFACE:DETAILED,
    Block Poly_57_Administration Storey 1 Wall 0001 window,    !- Name
    Window,                   !- Surface Type
    HSCWZ_Public&Industrial_1995_Win,    !- Construction Name
    Block Poly_57_Administration Storey 1 Wall 0001,    !- Building Surface Name
    ,                         !- Outside Boundary Condition Object
    autocalculate,            !- View Factor to Ground
    ,                         !- Frame and Divider Name
    1,                        !- Multiplier
    autocalculate,            !- Number of Vertices
    9.568188478894967,        !- Vertex 1 Xcoordinate
    44.73350160876545,        !- Vertex 1 Ycoordinate
    5.025,                    !- Vertex 1 Zcoordinate
    9.568188478894967,        !- Vertex 2 Xcoordinate
    44.73350160876545,        !- Vertex 2 Ycoordinate
    3.975,                    !- Vertex 2 Zcoordinate
    5.617021549128025,        !- Vertex 3 Xcoordinate
    41.13586248755199,        !- Vertex 3 Ycoordinate
    3.975,                    !- Vertex 3 Zcoordinate
    5.617021549128025,        !- Vertex 4 Xcoordinate
    41.13586248755199,        !- Vertex 4 Ycoordinate
    5.025;                    !- Vertex 4 Zcoordinate

FENESTRATIONSURFACE:DETAILED,
    Block Poly_57_Administration Storey 1 Wall 0002 window,    !- Name
    Window,                   !- Surface Type
    HSCWZ_Public&Industrial_1995_Win,    !- Construction Name
    Block Poly_57_Administration Storey 1 Wall 0002,    !- Building Surface Name
    ,                         !- Outside Boundary Condition Object
    autocalculate,            !- View Factor to Ground
    ,                         !- Frame and Divider Name
    1,                        !- Multiplier
    autocalculate,            !- Number of Vertices
    5.613431753770507,        !- Vertex 1 Xcoordinate
    41.13120262119128,        !- Vertex 1 Ycoordinate
    5.025,                    !- Vertex 1 Zcoordinate
    5.613431753770507,        !- Vertex 2 Xcoordinate
    41.13120262119128,        !- Vertex 2 Ycoordinate
    3.975,                    !- Vertex 2 Zcoordinate
    2.3921875592152935,       !- Vertex 3 Xcoordinate
    35.418428753696844,       !- Vertex 3 Ycoordinate
    3.975,                    !- Vertex 3 Zcoordinate
    2.3921875592152935,       !- Vertex 4 Xcoordinate
    35.418428753696844,       !- Vertex 4 Ycoordinate
    5.025;                    !- Vertex 4 Zcoordinate

FENESTRATIONSURFACE:DETAILED,
    Block Poly_57_Administration Storey 1 Wall 0003 window,    !- Name
    Window,                   !- Surface Type
    HSCWZ_Public&Industrial_1995_Win,    !- Construction Name
    Block Poly_57_Administration Storey 1 Wall 0003,    !- Building Surface Name
    ,                         !- Outside Boundary Condition Object
    autocalculate,            !- View Factor to Ground
    ,                         !- Frame and Divider Name
    1,                        !- Multiplier
    autocalculate,            !- Number of Vertices
    2.3893800372212426,       !- Vertex 1 Xcoordinate
    35.411928068678826,       !- Vertex 1 Ycoordinate
    5.025,                    !- Vertex 1 Zcoordinate
    2.3893800372212426,       !- Vertex 2 Xcoordinate
    35.411928068678826,       !- Vertex 2 Ycoordinate
    3.975,                    !- Vertex 2 Zcoordinate
    0.001195288,              !- Vertex 3 Xcoordinate
    28.136333270166066,       !- Vertex 3 Ycoordinate
    3.975,                    !- Vertex 3 Zcoordinate
    0.001195288,              !- Vertex 4 Xcoordinate
    28.136333270166066,       !- Vertex 4 Ycoordinate
    5.025;                    !- Vertex 4 Zcoordinate

FENESTRATIONSURFACE:DETAILED,
    Block Poly_57_Administration Storey 1 Wall 0004 window,    !- Name
    Window,                   !- Surface Type
    HSCWZ_Public&Industrial_1995_Win,    !- Construction Name
    Block Poly_57_Administration Storey 1 Wall 0004,    !- Building Surface Name
    ,                         !- Outside Boundary Condition Object
    autocalculate,            !- View Factor to Ground
    ,                         !- Frame and Divider Name
    1,                        !- Multiplier
    autocalculate,            !- Number of Vertices
    0.0003516034,             !- Vertex 1 Xcoordinate
    28.130690973516085,       !- Vertex 1 Ycoordinate
    5.025,                    !- Vertex 1 Zcoordinate
    0.0003516034,             !- Vertex 2 Xcoordinate
    28.130690973516085,       !- Vertex 2 Ycoordinate
    3.975,                    !- Vertex 2 Zcoordinate
    0.7028552701784647,       !- Vertex 3 Xcoordinate
    24.132977065366227,       !- Vertex 3 Ycoordinate
    3.975,                    !- Vertex 3 Zcoordinate
    0.7028552701784647,       !- Vertex 4 Xcoordinate
    24.132977065366227,       !- Vertex 4 Ycoordinate
    5.025;                    !- Vertex 4 Zcoordinate

FENESTRATIONSURFACE:DETAILED,
    Block Poly_57_Administration Storey 1 Wall 0005 window,    !- Name
    Window,                   !- Surface Type
    HSCWZ_Public&Industrial_1995_Win,    !- Construction Name
    Block Poly_57_Administration Storey 1 Wall 0005,    !- Building Surface Name
    ,                         !- Outside Boundary Condition Object
    autocalculate,            !- View Factor to Ground
    ,                         !- Frame and Divider Name
    1,                        !- Multiplier
    autocalculate,            !- Number of Vertices
    0.7049690289538413,       !- Vertex 1 Xcoordinate
    24.12779062412982,        !- Vertex 1 Ycoordinate
    5.025,                    !- Vertex 1 Zcoordinate
    0.7049690289538413,       !- Vertex 2 Xcoordinate
    24.12779062412982,        !- Vertex 2 Ycoordinate
    3.975,                    !- Vertex 2 Zcoordinate
    4.225755395414395,        !- Vertex 3 Xcoordinate
    17.76299494193564,        !- Vertex 3 Ycoordinate
    3.975,                    !- Vertex 3 Zcoordinate
    4.225755395414395,        !- Vertex 4 Xcoordinate
    17.76299494193564,        !- Vertex 4 Ycoordinate
    5.025;                    !- Vertex 4 Zcoordinate

FENESTRATIONSURFACE:DETAILED,
    Block Poly_57_Administration Storey 1 Wall 0006 window,    !- Name
    Window,                   !- Surface Type
    HSCWZ_Public&Industrial_1995_Win,    !- Construction Name
    Block Poly_57_Administration Storey 1 Wall 0006,    !- Building Surface Name
    ,                         !- Outside Boundary Condition Object
    autocalculate,            !- View Factor to Ground
    ,                         !- Frame and Divider Name
    1,                        !- Multiplier
    autocalculate,            !- Number of Vertices
    4.230987872454833,        !- Vertex 1 Xcoordinate
    17.756266272990267,       !- Vertex 1 Ycoordinate
    5.025,                    !- Vertex 1 Zcoordinate
    4.230987872454833,        !- Vertex 2 Xcoordinate
    17.756266272990267,       !- Vertex 2 Ycoordinate
    3.975,                    !- Vertex 2 Zcoordinate
    11.164690632788435,       !- Vertex 3 Xcoordinate
    10.677181402323534,       !- Vertex 3 Ycoordinate
    3.975,                    !- Vertex 3 Zcoordinate
    11.164690632788435,       !- Vertex 4 Xcoordinate
    10.677181402323534,       !- Vertex 4 Ycoordinate
    5.025;                    !- Vertex 4 Zcoordinate

FENESTRATIONSURFACE:DETAILED,
    Block Poly_57_Administration Storey 1 Wall 0007 window,    !- Name
    Window,                   !- Surface Type
    HSCWZ_Public&Industrial_1995_Win,    !- Construction Name
    Block Poly_57_Administration Storey 1 Wall 0007,    !- Building Surface Name
    ,                         !- Outside Boundary Condition Object
    autocalculate,            !- View Factor to Ground
    ,                         !- Frame and Divider Name
    1,                        !- Multiplier
    autocalculate,            !- Number of Vertices
    11.172403112356522,       !- Vertex 1 Xcoordinate
    10.67080467490712,        !- Vertex 1 Ycoordinate
    5.025,                    !- Vertex 1 Zcoordinate
    11.172403112356522,       !- Vertex 2 Xcoordinate
    10.67080467490712,        !- Vertex 2 Ycoordinate
    3.975,                    !- Vertex 2 Zcoordinate
    19.648234529059877,       !- Vertex 3 Xcoordinate
    5.009188167580869,        !- Vertex 3 Ycoordinate
    3.975,                    !- Vertex 3 Zcoordinate
    19.648234529059877,       !- Vertex 4 Xcoordinate
    5.009188167580869,        !- Vertex 4 Ycoordinate
    5.025;                    !- Vertex 4 Zcoordinate

FENESTRATIONSURFACE:DETAILED,
    Block Poly_57_Administration Storey 1 Wall 0008 window,    !- Name
    Window,                   !- Surface Type
    HSCWZ_Public&Industrial_1995_Win,    !- Construction Name
    Block Poly_57_Administration Storey 1 Wall 0008,    !- Building Surface Name
    ,                         !- Outside Boundary Condition Object
    autocalculate,            !- View Factor to Ground
    ,                         !- Frame and Divider Name
    1,                        !- Multiplier
    autocalculate,            !- Number of Vertices
    19.656499496744217,       !- Vertex 1 Xcoordinate
    5.00479913545982,         !- Vertex 1 Ycoordinate
    5.025,                    !- Vertex 1 Zcoordinate
    19.656499496744217,       !- Vertex 2 Xcoordinate
    5.00479913545982,         !- Vertex 2 Ycoordinate
    3.975,                    !- Vertex 2 Zcoordinate
    27.694073513358163,       !- Vertex 3 Xcoordinate
    1.8971294649296906,       !- Vertex 3 Ycoordinate
    3.975,                    !- Vertex 3 Zcoordinate
    27.694073513358163,       !- Vertex 4 Xcoordinate
    1.8971294649296906,       !- Vertex 4 Ycoordinate
    5.025;                    !- Vertex 4 Zcoordinate

FENESTRATIONSURFACE:DETAILED,
    Block Poly_57_Administration Storey 1 Wall 0009 window,    !- Name
    Window,                   !- Surface Type
    HSCWZ_Public&Industrial_1995_Win,    !- Construction Name
    Block Poly_57_Administration Storey 1 Wall 0009,    !- Building Surface Name
    ,                         !- Outside Boundary Condition Object
    autocalculate,            !- View Factor to Ground
    ,                         !- Frame and Divider Name
    1,                        !- Multiplier
    autocalculate,            !- Number of Vertices
    27.702270764697808,       !- Vertex 1 Xcoordinate
    1.8946262876668478,       !- Vertex 1 Ycoordinate
    5.025,                    !- Vertex 1 Zcoordinate
    27.702270764697808,       !- Vertex 2 Xcoordinate
    1.8946262876668478,       !- Vertex 2 Ycoordinate
    3.975,                    !- Vertex 2 Zcoordinate
    36.04280492469808,        !- Vertex 3 Xcoordinate
    0.000947787,              !- Vertex 3 Ycoordinate
    3.975,                    !- Vertex 3 Zcoordinate
    36.04280492469808,        !- Vertex 4 Xcoordinate
    0.000947787,              !- Vertex 4 Ycoordinate
    5.025;                    !- Vertex 4 Zcoordinate

FENESTRATIONSURFACE:DETAILED,
    Block Poly_57_Administration Storey 1 Wall 0010 window,    !- Name
    Window,                   !- Surface Type
    HSCWZ_Public&Industrial_1995_Win,    !- Construction Name
    Block Poly_57_Administration Storey 1 Wall 0010,    !- Building Surface Name
    ,                         !- Outside Boundary Condition Object
    autocalculate,            !- View Factor to Ground
    ,                         !- Frame and Divider Name
    1,                        !- Multiplier
    autocalculate,            !- Number of Vertices
    36.050507009309456,       !- Vertex 1 Xcoordinate
    0.0003921256,             !- Vertex 1 Ycoordinate
    5.025,                    !- Vertex 1 Zcoordinate
    36.050507009309456,       !- Vertex 2 Xcoordinate
    0.0003921256,             !- Vertex 2 Ycoordinate
    3.975,                    !- Vertex 2 Zcoordinate
    43.098737902833875,       !- Vertex 3 Xcoordinate
    0.7838590129986405,       !- Vertex 3 Ycoordinate
    3.975,                    !- Vertex 3 Zcoordinate
    43.098737902833875,       !- Vertex 4 Xcoordinate
    0.7838590129986405,       !- Vertex 4 Ycoordinate
    5.025;                    !- Vertex 4 Zcoordinate

FENESTRATIONSURFACE:DETAILED,
    Block Poly_57_Administration Storey 1 Wall 0011 window,    !- Name
    Window,                   !- Surface Type
    HSCWZ_Public&Industrial_1995_Win,    !- Construction Name
    Block Poly_57_Administration Storey 1 Wall 0011,    !- Building Surface Name
    ,                         !- Outside Boundary Condition Object
    autocalculate,            !- View Factor to Ground
    ,                         !- Frame and Divider Name
    1,                        !- Multiplier
    autocalculate,            !- Number of Vertices
    43.10556818367119,        !- Vertex 1 Xcoordinate
    0.7855335365219507,       !- Vertex 1 Ycoordinate
    5.025,                    !- Vertex 1 Zcoordinate
    43.10556818367119,        !- Vertex 2 Xcoordinate
    0.7855335365219507,       !- Vertex 2 Ycoordinate
    3.975,                    !- Vertex 2 Zcoordinate
    49.70423840309589,        !- Vertex 3 Xcoordinate
    3.347764648666373,        !- Vertex 3 Ycoordinate
    3.975,                    !- Vertex 3 Zcoordinate
    49.70423840309589,        !- Vertex 4 Xcoordinate
    3.347764648666373,        !- Vertex 4 Ycoordinate
    5.025;                    !- Vertex 4 Zcoordinate

FENESTRATIONSURFACE:DETAILED,
    Block Poly_57_Administration Storey 1 Wall 0012 window,    !- Name
    Window,                   !- Surface Type
    HSCWZ_Public&Industrial_1995_Win,    !- Construction Name
    Block Poly_57_Administration Storey 1 Wall 0012,    !- Building Surface Name
    ,                         !- Outside Boundary Condition Object
    autocalculate,            !- View Factor to Ground
    ,                         !- Frame and Divider Name
    1,                        !- Multiplier
    autocalculate,            !- Number of Vertices
    49.70991056779289,        !- Vertex 1 Xcoordinate
    3.3516180869177914,       !- Vertex 1 Ycoordinate
    5.025,                    !- Vertex 1 Zcoordinate
    49.70991056779289,        !- Vertex 2 Xcoordinate
    3.3516180869177914,       !- Vertex 2 Ycoordinate
    3.975,                    !- Vertex 2 Zcoordinate
    54.444225412966865,       !- Vertex 3 Xcoordinate
    8.488556601108517,        !- Vertex 3 Ycoordinate
    3.975,                    !- Vertex 3 Zcoordinate
    54.444225412966865,       !- Vertex 4 Xcoordinate
    8.488556601108517,        !- Vertex 4 Ycoordinate
    5.025;                    !- Vertex 4 Zcoordinate

FENESTRATIONSURFACE:DETAILED,
    Block Poly_57_Administration Storey 1 Wall 0013 window,    !- Name
    Window,                   !- Surface Type
    HSCWZ_Public&Industrial_1995_Win,    !- Construction Name
    Block Poly_57_Administration Storey 1 Wall 0013,    !- Building Surface Name
    ,                         !- Outside Boundary Condition Object
    autocalculate,            !- View Factor to Ground
    ,                         !- Frame and Divider Name
    1,                        !- Multiplier
    autocalculate,            !- Number of Vertices
    54.44861204257079,        !- Vertex 1 Xcoordinate
    8.49564411272225,         !- Vertex 1 Ycoordinate
    5.025,                    !- Vertex 1 Zcoordinate
    54.44861204257079,        !- Vertex 2 Xcoordinate
    8.49564411272225,         !- Vertex 2 Ycoordinate
    3.975,                    !- Vertex 2 Zcoordinate
    58.478783146028114,       !- Vertex 3 Xcoordinate
    17.519553802768467,       !- Vertex 3 Ycoordinate
    3.975,                    !- Vertex 3 Zcoordinate
    58.478783146028114,       !- Vertex 4 Xcoordinate
    17.519553802768467,       !- Vertex 4 Ycoordinate
    5.025;                    !- Vertex 4 Zcoordinate

FENESTRATIONSURFACE:DETAILED,
    Block Poly_57_Administration Storey 1 Wall 0014 window,    !- Name
    Window,                   !- Surface Type
    HSCWZ_Public&Industrial_1995_Win,    !- Construction Name
    Block Poly_57_Administration Storey 1 Wall 0014,    !- Building Surface Name
    ,                         !- Outside Boundary Condition Object
    autocalculate,            !- View Factor to Ground
    ,                         !- Frame and Divider Name
    1,                        !- Multiplier
    autocalculate,            !- Number of Vertices
    58.48049221426883,        !- Vertex 1 Xcoordinate
    17.52906409838586,        !- Vertex 1 Ycoordinate
    5.025,                    !- Vertex 1 Zcoordinate
    58.48049221426883,        !- Vertex 2 Xcoordinate
    17.52906409838586,        !- Vertex 2 Ycoordinate
    3.975,                    !- Vertex 2 Zcoordinate
    57.865039455758584,       !- Vertex 3 Xcoordinate
    27.506725051893156,       !- Vertex 3 Ycoordinate
    3.975,                    !- Vertex 3 Zcoordinate
    57.865039455758584,       !- Vertex 4 Xcoordinate
    27.506725051893156,       !- Vertex 4 Ycoordinate
    5.025;                    !- Vertex 4 Zcoordinate

FENESTRATIONSURFACE:DETAILED,
    Block Poly_57_Administration Storey 1 Wall 0015 window,    !- Name
    Window,                   !- Surface Type
    HSCWZ_Public&Industrial_1995_Win,    !- Construction Name
    Block Poly_57_Administration Storey 1 Wall 0015,    !- Building Surface Name
    ,                         !- Outside Boundary Condition Object
    autocalculate,            !- View Factor to Ground
    ,                         !- Frame and Divider Name
    1,                        !- Multiplier
    autocalculate,            !- Number of Vertices
    57.863742692922884,       !- Vertex 1 Xcoordinate
    27.51572474440001,        !- Vertex 1 Ycoordinate
    5.025,                    !- Vertex 1 Zcoordinate
    57.863742692922884,       !- Vertex 2 Xcoordinate
    27.51572474440001,        !- Vertex 2 Ycoordinate
    3.975,                    !- Vertex 2 Zcoordinate
    55.8882633057044,         !- Vertex 3 Xcoordinate
    35.51944941958971,        !- Vertex 3 Ycoordinate
    3.975,                    !- Vertex 3 Zcoordinate
    55.8882633057044,         !- Vertex 4 Xcoordinate
    35.51944941958971,        !- Vertex 4 Ycoordinate
    5.025;                    !- Vertex 4 Zcoordinate

FENESTRATIONSURFACE:DETAILED,
    Block Poly_57_Administration Storey 1 Wall 0016 window,    !- Name
    Window,                   !- Surface Type
    HSCWZ_Public&Industrial_1995_Win,    !- Construction Name
    Block Poly_57_Administration Storey 1 Wall 0016,    !- Building Surface Name
    ,                         !- Outside Boundary Condition Object
    autocalculate,            !- View Factor to Ground
    ,                         !- Frame and Divider Name
    1,                        !- Multiplier
    autocalculate,            !- Number of Vertices
    55.88397766980194,        !- Vertex 1 Xcoordinate
    35.5291024430641,         !- Vertex 1 Ycoordinate
    5.025,                    !- Vertex 1 Zcoordinate
    55.88397766980194,        !- Vertex 2 Xcoordinate
    35.5291024430641,         !- Vertex 2 Ycoordinate
    3.975,                    !- Vertex 2 Zcoordinate
    49.29675652390728,        !- Vertex 3 Xcoordinate
    46.812118669693824,       !- Vertex 3 Ycoordinate
    3.975,                    !- Vertex 3 Zcoordinate
    49.29675652390728,        !- Vertex 4 Xcoordinate
    46.812118669693824,       !- Vertex 4 Ycoordinate
    5.025;                    !- Vertex 4 Zcoordinate

FENESTRATIONSURFACE:DETAILED,
    Block Poly_57_Administration Storey 1 Wall 0017 window,    !- Name
    Window,                   !- Surface Type
    HSCWZ_Public&Industrial_1995_Win,    !- Construction Name
    Block Poly_57_Administration Storey 1 Wall 0017,    !- Building Surface Name
    ,                         !- Outside Boundary Condition Object
    autocalculate,            !- View Factor to Ground
    ,                         !- Frame and Divider Name
    1,                        !- Multiplier
    autocalculate,            !- Number of Vertices
    49.29139903931818,        !- Vertex 1 Xcoordinate
    46.82006875245413,        !- Vertex 1 Ycoordinate
    5.025,                    !- Vertex 1 Zcoordinate
    49.29139903931818,        !- Vertex 2 Xcoordinate
    46.82006875245413,        !- Vertex 2 Ycoordinate
    3.975,                    !- Vertex 2 Zcoordinate
    45.174365976195,          !- Vertex 3 Xcoordinate
    51.42131788091222,        !- Vertex 3 Ycoordinate
    3.975,                    !- Vertex 3 Zcoordinate
    45.174365976195,          !- Vertex 4 Xcoordinate
    51.42131788091222,        !- Vertex 4 Ycoordinate
    5.025;                    !- Vertex 4 Zcoordinate

FENESTRATIONSURFACE:DETAILED,
    Block Poly_57_Administration Storey 1 Wall 0018 window,    !- Name
    Window,                   !- Surface Type
    HSCWZ_Public&Industrial_1995_Win,    !- Construction Name
    Block Poly_57_Administration Storey 1 Wall 0018,    !- Building Surface Name
    ,                         !- Outside Boundary Condition Object
    autocalculate,            !- View Factor to Ground
    ,                         !- Frame and Divider Name
    1,                        !- Multiplier
    autocalculate,            !- Number of Vertices
    45.16804549694242,        !- Vertex 1 Xcoordinate
    51.425235082821686,       !- Vertex 1 Ycoordinate
    5.025,                    !- Vertex 1 Zcoordinate
    45.16804549694242,        !- Vertex 2 Xcoordinate
    51.425235082821686,       !- Vertex 2 Ycoordinate
    3.975,                    !- Vertex 2 Zcoordinate
    36.65676101341198,        !- Vertex 3 Xcoordinate
    54.65055536948354,        !- Vertex 3 Ycoordinate
    3.975,                    !- Vertex 3 Zcoordinate
    36.65676101341198,        !- Vertex 4 Xcoordinate
    54.65055536948354,        !- Vertex 4 Ycoordinate
    5.025;                    !- Vertex 4 Zcoordinate

FENESTRATIONSURFACE:DETAILED,
    Block Poly_57_Administration Storey 1 Wall 0019 window,    !- Name
    Window,                   !- Surface Type
    HSCWZ_Public&Industrial_1995_Win,    !- Construction Name
    Block Poly_57_Administration Storey 1 Wall 0019,    !- Building Surface Name
    ,                         !- Outside Boundary Condition Object
    autocalculate,            !- View Factor to Ground
    ,                         !- Frame and Divider Name
    1,                        !- Multiplier
    autocalculate,            !- Number of Vertices
    36.64897752178327,        !- Vertex 1 Xcoordinate
    54.65205464795139,        !- Vertex 1 Ycoordinate
    5.025,                    !- Vertex 1 Zcoordinate
    36.64897752178327,        !- Vertex 2 Xcoordinate
    54.65205464795139,        !- Vertex 2 Ycoordinate
    3.975,                    !- Vertex 2 Zcoordinate
    29.608845731150765,       !- Vertex 3 Xcoordinate
    54.42229274004791,        !- Vertex 3 Ycoordinate
    3.975,                    !- Vertex 3 Zcoordinate
    29.608845731150765,       !- Vertex 4 Xcoordinate
    54.42229274004791,        !- Vertex 4 Ycoordinate
    5.025;                    !- Vertex 4 Zcoordinate

FENESTRATIONSURFACE:DETAILED,
    Block Poly_57_Administration Storey 1 Wall 0020 window,    !- Name
    Window,                   !- Surface Type
    HSCWZ_Public&Industrial_1995_Win,    !- Construction Name
    Block Poly_57_Administration Storey 1 Wall 0020,    !- Building Surface Name
    ,                         !- Outside Boundary Condition Object
    autocalculate,            !- View Factor to Ground
    ,                         !- Frame and Divider Name
    1,                        !- Multiplier
    autocalculate,            !- Number of Vertices
    29.600970261007692,       !- Vertex 1 Xcoordinate
    54.42074432339356,        !- Vertex 1 Ycoordinate
    5.025,                    !- Vertex 1 Zcoordinate
    29.600970261007692,       !- Vertex 2 Xcoordinate
    54.42074432339356,        !- Vertex 2 Ycoordinate
    3.975,                    !- Vertex 2 Zcoordinate
    20.905912705779397,       !- Vertex 3 Xcoordinate
    51.55676975591271,        !- Vertex 3 Ycoordinate
    3.975,                    !- Vertex 3 Zcoordinate
    20.905912705779397,       !- Vertex 4 Xcoordinate
    51.55676975591271,        !- Vertex 4 Ycoordinate
    5.025;                    !- Vertex 4 Zcoordinate

FENESTRATIONSURFACE:DETAILED,
    Block Poly_57_Administration Storey 1 Wall 0021 window,    !- Name
    Window,                   !- Surface Type
    HSCWZ_Public&Industrial_1995_Win,    !- Construction Name
    Block Poly_57_Administration Storey 1 Wall 0021,    !- Building Surface Name
    ,                         !- Outside Boundary Condition Object
    autocalculate,            !- View Factor to Ground
    ,                         !- Frame and Divider Name
    1,                        !- Multiplier
    autocalculate,            !- Number of Vertices
    20.895895127728522,       !- Vertex 1 Xcoordinate
    51.55192631815514,        !- Vertex 1 Ycoordinate
    5.025,                    !- Vertex 1 Zcoordinate
    20.895895127728522,       !- Vertex 2 Xcoordinate
    51.55192631815514,        !- Vertex 2 Ycoordinate
    3.975,                    !- Vertex 2 Zcoordinate
    9.575831737313479,        !- Vertex 3 Xcoordinate
    44.738712245999366,       !- Vertex 3 Ycoordinate
    3.975,                    !- Vertex 3 Zcoordinate
    9.575831737313479,        !- Vertex 4 Xcoordinate
    44.738712245999366,       !- Vertex 4 Ycoordinate
    5.025;                    !- Vertex 4 Zcoordinate

FENESTRATIONSURFACE:DETAILED,
    Block Poly_57_Administration Storey 2 Wall 0001 window,    !- Name
    Window,                   !- Surface Type
    HSCWZ_Public&Industrial_1995_Win,    !- Construction Name
    Block Poly_57_Administration Storey 2 Wall 0001,    !- Building Surface Name
    ,                         !- Outside Boundary Condition Object
    autocalculate,            !- View Factor to Ground
    ,                         !- Frame and Divider Name
    1,                        !- Multiplier
    autocalculate,            !- Number of Vertices
    9.568188478894967,        !- Vertex 1 Xcoordinate
    44.73350160876545,        !- Vertex 1 Ycoordinate
    8.025,                    !- Vertex 1 Zcoordinate
    9.568188478894967,        !- Vertex 2 Xcoordinate
    44.73350160876545,        !- Vertex 2 Ycoordinate
    6.975,                    !- Vertex 2 Zcoordinate
    5.617021549128025,        !- Vertex 3 Xcoordinate
    41.13586248755199,        !- Vertex 3 Ycoordinate
    6.975,                    !- Vertex 3 Zcoordinate
    5.617021549128025,        !- Vertex 4 Xcoordinate
    41.13586248755199,        !- Vertex 4 Ycoordinate
    8.025;                    !- Vertex 4 Zcoordinate

FENESTRATIONSURFACE:DETAILED,
    Block Poly_57_Administration Storey 2 Wall 0002 window,    !- Name
    Window,                   !- Surface Type
    HSCWZ_Public&Industrial_1995_Win,    !- Construction Name
    Block Poly_57_Administration Storey 2 Wall 0002,    !- Building Surface Name
    ,                         !- Outside Boundary Condition Object
    autocalculate,            !- View Factor to Ground
    ,                         !- Frame and Divider Name
    1,                        !- Multiplier
    autocalculate,            !- Number of Vertices
    5.613431753770507,        !- Vertex 1 Xcoordinate
    41.13120262119128,        !- Vertex 1 Ycoordinate
    8.025,                    !- Vertex 1 Zcoordinate
    5.613431753770507,        !- Vertex 2 Xcoordinate
    41.13120262119128,        !- Vertex 2 Ycoordinate
    6.975,                    !- Vertex 2 Zcoordinate
    2.3921875592152935,       !- Vertex 3 Xcoordinate
    35.418428753696844,       !- Vertex 3 Ycoordinate
    6.975,                    !- Vertex 3 Zcoordinate
    2.3921875592152935,       !- Vertex 4 Xcoordinate
    35.418428753696844,       !- Vertex 4 Ycoordinate
    8.025;                    !- Vertex 4 Zcoordinate

FENESTRATIONSURFACE:DETAILED,
    Block Poly_57_Administration Storey 2 Wall 0003 window,    !- Name
    Window,                   !- Surface Type
    HSCWZ_Public&Industrial_1995_Win,    !- Construction Name
    Block Poly_57_Administration Storey 2 Wall 0003,    !- Building Surface Name
    ,                         !- Outside Boundary Condition Object
    autocalculate,            !- View Factor to Ground
    ,                         !- Frame and Divider Name
    1,                        !- Multiplier
    autocalculate,            !- Number of Vertices
    2.3893800372212426,       !- Vertex 1 Xcoordinate
    35.411928068678826,       !- Vertex 1 Ycoordinate
    8.025,                    !- Vertex 1 Zcoordinate
    2.3893800372212426,       !- Vertex 2 Xcoordinate
    35.411928068678826,       !- Vertex 2 Ycoordinate
    6.975,                    !- Vertex 2 Zcoordinate
    0.001195288,              !- Vertex 3 Xcoordinate
    28.136333270166066,       !- Vertex 3 Ycoordinate
    6.975,                    !- Vertex 3 Zcoordinate
    0.001195288,              !- Vertex 4 Xcoordinate
    28.136333270166066,       !- Vertex 4 Ycoordinate
    8.025;                    !- Vertex 4 Zcoordinate

FENESTRATIONSURFACE:DETAILED,
    Block Poly_57_Administration Storey 2 Wall 0004 window,    !- Name
    Window,                   !- Surface Type
    HSCWZ_Public&Industrial_1995_Win,    !- Construction Name
    Block Poly_57_Administration Storey 2 Wall 0004,    !- Building Surface Name
    ,                         !- Outside Boundary Condition Object
    autocalculate,            !- View Factor to Ground
    ,                         !- Frame and Divider Name
    1,                        !- Multiplier
    autocalculate,            !- Number of Vertices
    0.0003516034,             !- Vertex 1 Xcoordinate
    28.130690973516085,       !- Vertex 1 Ycoordinate
    8.025,                    !- Vertex 1 Zcoordinate
    0.0003516034,             !- Vertex 2 Xcoordinate
    28.130690973516085,       !- Vertex 2 Ycoordinate
    6.975,                    !- Vertex 2 Zcoordinate
    0.7028552701784647,       !- Vertex 3 Xcoordinate
    24.132977065366227,       !- Vertex 3 Ycoordinate
    6.975,                    !- Vertex 3 Zcoordinate
    0.7028552701784647,       !- Vertex 4 Xcoordinate
    24.132977065366227,       !- Vertex 4 Ycoordinate
    8.025;                    !- Vertex 4 Zcoordinate

FENESTRATIONSURFACE:DETAILED,
    Block Poly_57_Administration Storey 2 Wall 0005 window,    !- Name
    Window,                   !- Surface Type
    HSCWZ_Public&Industrial_1995_Win,    !- Construction Name
    Block Poly_57_Administration Storey 2 Wall 0005,    !- Building Surface Name
    ,                         !- Outside Boundary Condition Object
    autocalculate,            !- View Factor to Ground
    ,                         !- Frame and Divider Name
    1,                        !- Multiplier
    autocalculate,            !- Number of Vertices
    0.7049690289538413,       !- Vertex 1 Xcoordinate
    24.12779062412982,        !- Vertex 1 Ycoordinate
    8.025,                    !- Vertex 1 Zcoordinate
    0.7049690289538413,       !- Vertex 2 Xcoordinate
    24.12779062412982,        !- Vertex 2 Ycoordinate
    6.975,                    !- Vertex 2 Zcoordinate
    4.225755395414395,        !- Vertex 3 Xcoordinate
    17.76299494193564,        !- Vertex 3 Ycoordinate
    6.975,                    !- Vertex 3 Zcoordinate
    4.225755395414395,        !- Vertex 4 Xcoordinate
    17.76299494193564,        !- Vertex 4 Ycoordinate
    8.025;                    !- Vertex 4 Zcoordinate

FENESTRATIONSURFACE:DETAILED,
    Block Poly_57_Administration Storey 2 Wall 0006 window,    !- Name
    Window,                   !- Surface Type
    HSCWZ_Public&Industrial_1995_Win,    !- Construction Name
    Block Poly_57_Administration Storey 2 Wall 0006,    !- Building Surface Name
    ,                         !- Outside Boundary Condition Object
    autocalculate,            !- View Factor to Ground
    ,                         !- Frame and Divider Name
    1,                        !- Multiplier
    autocalculate,            !- Number of Vertices
    4.230987872454833,        !- Vertex 1 Xcoordinate
    17.756266272990267,       !- Vertex 1 Ycoordinate
    8.025,                    !- Vertex 1 Zcoordinate
    4.230987872454833,        !- Vertex 2 Xcoordinate
    17.756266272990267,       !- Vertex 2 Ycoordinate
    6.975,                    !- Vertex 2 Zcoordinate
    11.164690632788435,       !- Vertex 3 Xcoordinate
    10.677181402323534,       !- Vertex 3 Ycoordinate
    6.975,                    !- Vertex 3 Zcoordinate
    11.164690632788435,       !- Vertex 4 Xcoordinate
    10.677181402323534,       !- Vertex 4 Ycoordinate
    8.025;                    !- Vertex 4 Zcoordinate

FENESTRATIONSURFACE:DETAILED,
    Block Poly_57_Administration Storey 2 Wall 0007 window,    !- Name
    Window,                   !- Surface Type
    HSCWZ_Public&Industrial_1995_Win,    !- Construction Name
    Block Poly_57_Administration Storey 2 Wall 0007,    !- Building Surface Name
    ,                         !- Outside Boundary Condition Object
    autocalculate,            !- View Factor to Ground
    ,                         !- Frame and Divider Name
    1,                        !- Multiplier
    autocalculate,            !- Number of Vertices
    11.172403112356522,       !- Vertex 1 Xcoordinate
    10.67080467490712,        !- Vertex 1 Ycoordinate
    8.025,                    !- Vertex 1 Zcoordinate
    11.172403112356522,       !- Vertex 2 Xcoordinate
    10.67080467490712,        !- Vertex 2 Ycoordinate
    6.975,                    !- Vertex 2 Zcoordinate
    19.648234529059877,       !- Vertex 3 Xcoordinate
    5.009188167580869,        !- Vertex 3 Ycoordinate
    6.975,                    !- Vertex 3 Zcoordinate
    19.648234529059877,       !- Vertex 4 Xcoordinate
    5.009188167580869,        !- Vertex 4 Ycoordinate
    8.025;                    !- Vertex 4 Zcoordinate

FENESTRATIONSURFACE:DETAILED,
    Block Poly_57_Administration Storey 2 Wall 0008 window,    !- Name
    Window,                   !- Surface Type
    HSCWZ_Public&Industrial_1995_Win,    !- Construction Name
    Block Poly_57_Administration Storey 2 Wall 0008,    !- Building Surface Name
    ,                         !- Outside Boundary Condition Object
    autocalculate,            !- View Factor to Ground
    ,                         !- Frame and Divider Name
    1,                        !- Multiplier
    autocalculate,            !- Number of Vertices
    19.656499496744217,       !- Vertex 1 Xcoordinate
    5.00479913545982,         !- Vertex 1 Ycoordinate
    8.025,                    !- Vertex 1 Zcoordinate
    19.656499496744217,       !- Vertex 2 Xcoordinate
    5.00479913545982,         !- Vertex 2 Ycoordinate
    6.975,                    !- Vertex 2 Zcoordinate
    27.694073513358163,       !- Vertex 3 Xcoordinate
    1.8971294649296906,       !- Vertex 3 Ycoordinate
    6.975,                    !- Vertex 3 Zcoordinate
    27.694073513358163,       !- Vertex 4 Xcoordinate
    1.8971294649296906,       !- Vertex 4 Ycoordinate
    8.025;                    !- Vertex 4 Zcoordinate

FENESTRATIONSURFACE:DETAILED,
    Block Poly_57_Administration Storey 2 Wall 0009 window,    !- Name
    Window,                   !- Surface Type
    HSCWZ_Public&Industrial_1995_Win,    !- Construction Name
    Block Poly_57_Administration Storey 2 Wall 0009,    !- Building Surface Name
    ,                         !- Outside Boundary Condition Object
    autocalculate,            !- View Factor to Ground
    ,                         !- Frame and Divider Name
    1,                        !- Multiplier
    autocalculate,            !- Number of Vertices
    27.702270764697808,       !- Vertex 1 Xcoordinate
    1.8946262876668478,       !- Vertex 1 Ycoordinate
    8.025,                    !- Vertex 1 Zcoordinate
    27.702270764697808,       !- Vertex 2 Xcoordinate
    1.8946262876668478,       !- Vertex 2 Ycoordinate
    6.975,                    !- Vertex 2 Zcoordinate
    36.04280492469808,        !- Vertex 3 Xcoordinate
    0.000947787,              !- Vertex 3 Ycoordinate
    6.975,                    !- Vertex 3 Zcoordinate
    36.04280492469808,        !- Vertex 4 Xcoordinate
    0.000947787,              !- Vertex 4 Ycoordinate
    8.025;                    !- Vertex 4 Zcoordinate

FENESTRATIONSURFACE:DETAILED,
    Block Poly_57_Administration Storey 2 Wall 0010 window,    !- Name
    Window,                   !- Surface Type
    HSCWZ_Public&Industrial_1995_Win,    !- Construction Name
    Block Poly_57_Administration Storey 2 Wall 0010,    !- Building Surface Name
    ,                         !- Outside Boundary Condition Object
    autocalculate,            !- View Factor to Ground
    ,                         !- Frame and Divider Name
    1,                        !- Multiplier
    autocalculate,            !- Number of Vertices
    36.050507009309456,       !- Vertex 1 Xcoordinate
    0.0003921256,             !- Vertex 1 Ycoordinate
    8.025,                    !- Vertex 1 Zcoordinate
    36.050507009309456,       !- Vertex 2 Xcoordinate
    0.0003921256,             !- Vertex 2 Ycoordinate
    6.975,                    !- Vertex 2 Zcoordinate
    43.098737902833875,       !- Vertex 3 Xcoordinate
    0.7838590129986405,       !- Vertex 3 Ycoordinate
    6.975,                    !- Vertex 3 Zcoordinate
    43.098737902833875,       !- Vertex 4 Xcoordinate
    0.7838590129986405,       !- Vertex 4 Ycoordinate
    8.025;                    !- Vertex 4 Zcoordinate

FENESTRATIONSURFACE:DETAILED,
    Block Poly_57_Administration Storey 2 Wall 0011 window,    !- Name
    Window,                   !- Surface Type
    HSCWZ_Public&Industrial_1995_Win,    !- Construction Name
    Block Poly_57_Administration Storey 2 Wall 0011,    !- Building Surface Name
    ,                         !- Outside Boundary Condition Object
    autocalculate,            !- View Factor to Ground
    ,                         !- Frame and Divider Name
    1,                        !- Multiplier
    autocalculate,            !- Number of Vertices
    43.10556818367119,        !- Vertex 1 Xcoordinate
    0.7855335365219507,       !- Vertex 1 Ycoordinate
    8.025,                    !- Vertex 1 Zcoordinate
    43.10556818367119,        !- Vertex 2 Xcoordinate
    0.7855335365219507,       !- Vertex 2 Ycoordinate
    6.975,                    !- Vertex 2 Zcoordinate
    49.70423840309589,        !- Vertex 3 Xcoordinate
    3.347764648666373,        !- Vertex 3 Ycoordinate
    6.975,                    !- Vertex 3 Zcoordinate
    49.70423840309589,        !- Vertex 4 Xcoordinate
    3.347764648666373,        !- Vertex 4 Ycoordinate
    8.025;                    !- Vertex 4 Zcoordinate

FENESTRATIONSURFACE:DETAILED,
    Block Poly_57_Administration Storey 2 Wall 0012 window,    !- Name
    Window,                   !- Surface Type
    HSCWZ_Public&Industrial_1995_Win,    !- Construction Name
    Block Poly_57_Administration Storey 2 Wall 0012,    !- Building Surface Name
    ,                         !- Outside Boundary Condition Object
    autocalculate,            !- View Factor to Ground
    ,                         !- Frame and Divider Name
    1,                        !- Multiplier
    autocalculate,            !- Number of Vertices
    49.70991056779289,        !- Vertex 1 Xcoordinate
    3.3516180869177914,       !- Vertex 1 Ycoordinate
    8.025,                    !- Vertex 1 Zcoordinate
    49.70991056779289,        !- Vertex 2 Xcoordinate
    3.3516180869177914,       !- Vertex 2 Ycoordinate
    6.975,                    !- Vertex 2 Zcoordinate
    54.444225412966865,       !- Vertex 3 Xcoordinate
    8.488556601108517,        !- Vertex 3 Ycoordinate
    6.975,                    !- Vertex 3 Zcoordinate
    54.444225412966865,       !- Vertex 4 Xcoordinate
    8.488556601108517,        !- Vertex 4 Ycoordinate
    8.025;                    !- Vertex 4 Zcoordinate

FENESTRATIONSURFACE:DETAILED,
    Block Poly_57_Administration Storey 2 Wall 0013 window,    !- Name
    Window,                   !- Surface Type
    HSCWZ_Public&Industrial_1995_Win,    !- Construction Name
    Block Poly_57_Administration Storey 2 Wall 0013,    !- Building Surface Name
    ,                         !- Outside Boundary Condition Object
    autocalculate,            !- View Factor to Ground
    ,                         !- Frame and Divider Name
    1,                        !- Multiplier
    autocalculate,            !- Number of Vertices
    54.44861204257079,        !- Vertex 1 Xcoordinate
    8.49564411272225,         !- Vertex 1 Ycoordinate
    8.025,                    !- Vertex 1 Zcoordinate
    54.44861204257079,        !- Vertex 2 Xcoordinate
    8.49564411272225,         !- Vertex 2 Ycoordinate
    6.975,                    !- Vertex 2 Zcoordinate
    58.478783146028114,       !- Vertex 3 Xcoordinate
    17.519553802768467,       !- Vertex 3 Ycoordinate
    6.975,                    !- Vertex 3 Zcoordinate
    58.478783146028114,       !- Vertex 4 Xcoordinate
    17.519553802768467,       !- Vertex 4 Ycoordinate
    8.025;                    !- Vertex 4 Zcoordinate

FENESTRATIONSURFACE:DETAILED,
    Block Poly_57_Administration Storey 2 Wall 0014 window,    !- Name
    Window,                   !- Surface Type
    HSCWZ_Public&Industrial_1995_Win,    !- Construction Name
    Block Poly_57_Administration Storey 2 Wall 0014,    !- Building Surface Name
    ,                         !- Outside Boundary Condition Object
    autocalculate,            !- View Factor to Ground
    ,                         !- Frame and Divider Name
    1,                        !- Multiplier
    autocalculate,            !- Number of Vertices
    58.48049221426883,        !- Vertex 1 Xcoordinate
    17.52906409838586,        !- Vertex 1 Ycoordinate
    8.025,                    !- Vertex 1 Zcoordinate
    58.48049221426883,        !- Vertex 2 Xcoordinate
    17.52906409838586,        !- Vertex 2 Ycoordinate
    6.975,                    !- Vertex 2 Zcoordinate
    57.865039455758584,       !- Vertex 3 Xcoordinate
    27.506725051893156,       !- Vertex 3 Ycoordinate
    6.975,                    !- Vertex 3 Zcoordinate
    57.865039455758584,       !- Vertex 4 Xcoordinate
    27.506725051893156,       !- Vertex 4 Ycoordinate
    8.025;                    !- Vertex 4 Zcoordinate

FENESTRATIONSURFACE:DETAILED,
    Block Poly_57_Administration Storey 2 Wall 0015 window,    !- Name
    Window,                   !- Surface Type
    HSCWZ_Public&Industrial_1995_Win,    !- Construction Name
    Block Poly_57_Administration Storey 2 Wall 0015,    !- Building Surface Name
    ,                         !- Outside Boundary Condition Object
    autocalculate,            !- View Factor to Ground
    ,                         !- Frame and Divider Name
    1,                        !- Multiplier
    autocalculate,            !- Number of Vertices
    57.863742692922884,       !- Vertex 1 Xcoordinate
    27.51572474440001,        !- Vertex 1 Ycoordinate
    8.025,                    !- Vertex 1 Zcoordinate
    57.863742692922884,       !- Vertex 2 Xcoordinate
    27.51572474440001,        !- Vertex 2 Ycoordinate
    6.975,                    !- Vertex 2 Zcoordinate
    55.8882633057044,         !- Vertex 3 Xcoordinate
    35.51944941958971,        !- Vertex 3 Ycoordinate
    6.975,                    !- Vertex 3 Zcoordinate
    55.8882633057044,         !- Vertex 4 Xcoordinate
    35.51944941958971,        !- Vertex 4 Ycoordinate
    8.025;                    !- Vertex 4 Zcoordinate

FENESTRATIONSURFACE:DETAILED,
    Block Poly_57_Administration Storey 2 Wall 0016 window,    !- Name
    Window,                   !- Surface Type
    HSCWZ_Public&Industrial_1995_Win,    !- Construction Name
    Block Poly_57_Administration Storey 2 Wall 0016,    !- Building Surface Name
    ,                         !- Outside Boundary Condition Object
    autocalculate,            !- View Factor to Ground
    ,                         !- Frame and Divider Name
    1,                        !- Multiplier
    autocalculate,            !- Number of Vertices
    55.88397766980194,        !- Vertex 1 Xcoordinate
    35.5291024430641,         !- Vertex 1 Ycoordinate
    8.025,                    !- Vertex 1 Zcoordinate
    55.88397766980194,        !- Vertex 2 Xcoordinate
    35.5291024430641,         !- Vertex 2 Ycoordinate
    6.975,                    !- Vertex 2 Zcoordinate
    49.29675652390728,        !- Vertex 3 Xcoordinate
    46.812118669693824,       !- Vertex 3 Ycoordinate
    6.975,                    !- Vertex 3 Zcoordinate
    49.29675652390728,        !- Vertex 4 Xcoordinate
    46.812118669693824,       !- Vertex 4 Ycoordinate
    8.025;                    !- Vertex 4 Zcoordinate

FENESTRATIONSURFACE:DETAILED,
    Block Poly_57_Administration Storey 2 Wall 0017 window,    !- Name
    Window,                   !- Surface Type
    HSCWZ_Public&Industrial_1995_Win,    !- Construction Name
    Block Poly_57_Administration Storey 2 Wall 0017,    !- Building Surface Name
    ,                         !- Outside Boundary Condition Object
    autocalculate,            !- View Factor to Ground
    ,                         !- Frame and Divider Name
    1,                        !- Multiplier
    autocalculate,            !- Number of Vertices
    49.29139903931818,        !- Vertex 1 Xcoordinate
    46.82006875245413,        !- Vertex 1 Ycoordinate
    8.025,                    !- Vertex 1 Zcoordinate
    49.29139903931818,        !- Vertex 2 Xcoordinate
    46.82006875245413,        !- Vertex 2 Ycoordinate
    6.975,                    !- Vertex 2 Zcoordinate
    45.174365976195,          !- Vertex 3 Xcoordinate
    51.42131788091222,        !- Vertex 3 Ycoordinate
    6.975,                    !- Vertex 3 Zcoordinate
    45.174365976195,          !- Vertex 4 Xcoordinate
    51.42131788091222,        !- Vertex 4 Ycoordinate
    8.025;                    !- Vertex 4 Zcoordinate

FENESTRATIONSURFACE:DETAILED,
    Block Poly_57_Administration Storey 2 Wall 0018 window,    !- Name
    Window,                   !- Surface Type
    HSCWZ_Public&Industrial_1995_Win,    !- Construction Name
    Block Poly_57_Administration Storey 2 Wall 0018,    !- Building Surface Name
    ,                         !- Outside Boundary Condition Object
    autocalculate,            !- View Factor to Ground
    ,                         !- Frame and Divider Name
    1,                        !- Multiplier
    autocalculate,            !- Number of Vertices
    45.16804549694242,        !- Vertex 1 Xcoordinate
    51.425235082821686,       !- Vertex 1 Ycoordinate
    8.025,                    !- Vertex 1 Zcoordinate
    45.16804549694242,        !- Vertex 2 Xcoordinate
    51.425235082821686,       !- Vertex 2 Ycoordinate
    6.975,                    !- Vertex 2 Zcoordinate
    36.65676101341198,        !- Vertex 3 Xcoordinate
    54.65055536948354,        !- Vertex 3 Ycoordinate
    6.975,                    !- Vertex 3 Zcoordinate
    36.65676101341198,        !- Vertex 4 Xcoordinate
    54.65055536948354,        !- Vertex 4 Ycoordinate
    8.025;                    !- Vertex 4 Zcoordinate

FENESTRATIONSURFACE:DETAILED,
    Block Poly_57_Administration Storey 2 Wall 0019 window,    !- Name
    Window,                   !- Surface Type
    HSCWZ_Public&Industrial_1995_Win,    !- Construction Name
    Block Poly_57_Administration Storey 2 Wall 0019,    !- Building Surface Name
    ,                         !- Outside Boundary Condition Object
    autocalculate,            !- View Factor to Ground
    ,                         !- Frame and Divider Name
    1,                        !- Multiplier
    autocalculate,            !- Number of Vertices
    36.64897752178327,        !- Vertex 1 Xcoordinate
    54.65205464795139,        !- Vertex 1 Ycoordinate
    8.025,                    !- Vertex 1 Zcoordinate
    36.64897752178327,        !- Vertex 2 Xcoordinate
    54.65205464795139,        !- Vertex 2 Ycoordinate
    6.975,                    !- Vertex 2 Zcoordinate
    29.608845731150765,       !- Vertex 3 Xcoordinate
    54.42229274004791,        !- Vertex 3 Ycoordinate
    6.975,                    !- Vertex 3 Zcoordinate
    29.608845731150765,       !- Vertex 4 Xcoordinate
    54.42229274004791,        !- Vertex 4 Ycoordinate
    8.025;                    !- Vertex 4 Zcoordinate

FENESTRATIONSURFACE:DETAILED,
    Block Poly_57_Administration Storey 2 Wall 0020 window,    !- Name
    Window,                   !- Surface Type
    HSCWZ_Public&Industrial_1995_Win,    !- Construction Name
    Block Poly_57_Administration Storey 2 Wall 0020,    !- Building Surface Name
    ,                         !- Outside Boundary Condition Object
    autocalculate,            !- View Factor to Ground
    ,                         !- Frame and Divider Name
    1,                        !- Multiplier
    autocalculate,            !- Number of Vertices
    29.600970261007692,       !- Vertex 1 Xcoordinate
    54.42074432339356,        !- Vertex 1 Ycoordinate
    8.025,                    !- Vertex 1 Zcoordinate
    29.600970261007692,       !- Vertex 2 Xcoordinate
    54.42074432339356,        !- Vertex 2 Ycoordinate
    6.975,                    !- Vertex 2 Zcoordinate
    20.905912705779397,       !- Vertex 3 Xcoordinate
    51.55676975591271,        !- Vertex 3 Ycoordinate
    6.975,                    !- Vertex 3 Zcoordinate
    20.905912705779397,       !- Vertex 4 Xcoordinate
    51.55676975591271,        !- Vertex 4 Ycoordinate
    8.025;                    !- Vertex 4 Zcoordinate

FENESTRATIONSURFACE:DETAILED,
    Block Poly_57_Administration Storey 2 Wall 0021 window,    !- Name
    Window,                   !- Surface Type
    HSCWZ_Public&Industrial_1995_Win,    !- Construction Name
    Block Poly_57_Administration Storey 2 Wall 0021,    !- Building Surface Name
    ,                         !- Outside Boundary Condition Object
    autocalculate,            !- View Factor to Ground
    ,                         !- Frame and Divider Name
    1,                        !- Multiplier
    autocalculate,            !- Number of Vertices
    20.895895127728522,       !- Vertex 1 Xcoordinate
    51.55192631815514,        !- Vertex 1 Ycoordinate
    8.025,                    !- Vertex 1 Zcoordinate
    20.895895127728522,       !- Vertex 2 Xcoordinate
    51.55192631815514,        !- Vertex 2 Ycoordinate
    6.975,                    !- Vertex 2 Zcoordinate
    9.575831737313479,        !- Vertex 3 Xcoordinate
    44.738712245999366,       !- Vertex 3 Ycoordinate
    6.975,                    !- Vertex 3 Zcoordinate
    9.575831737313479,        !- Vertex 4 Xcoordinate
    44.738712245999366,       !- Vertex 4 Ycoordinate
    8.025;                    !- Vertex 4 Zcoordinate

FENESTRATIONSURFACE:DETAILED,
    Block Poly_57_Administration Storey 3 Wall 0001 window,    !- Name
    Window,                   !- Surface Type
    HSCWZ_Public&Industrial_1995_Win,    !- Construction Name
    Block Poly_57_Administration Storey 3 Wall 0001,    !- Building Surface Name
    ,                         !- Outside Boundary Condition Object
    autocalculate,            !- View Factor to Ground
    ,                         !- Frame and Divider Name
    1,                        !- Multiplier
    autocalculate,            !- Number of Vertices
    9.568188478894967,        !- Vertex 1 Xcoordinate
    44.73350160876545,        !- Vertex 1 Ycoordinate
    11.025,                   !- Vertex 1 Zcoordinate
    9.568188478894967,        !- Vertex 2 Xcoordinate
    44.73350160876545,        !- Vertex 2 Ycoordinate
    9.975,                    !- Vertex 2 Zcoordinate
    5.617021549128025,        !- Vertex 3 Xcoordinate
    41.13586248755199,        !- Vertex 3 Ycoordinate
    9.975,                    !- Vertex 3 Zcoordinate
    5.617021549128025,        !- Vertex 4 Xcoordinate
    41.13586248755199,        !- Vertex 4 Ycoordinate
    11.025;                   !- Vertex 4 Zcoordinate

FENESTRATIONSURFACE:DETAILED,
    Block Poly_57_Administration Storey 3 Wall 0002 window,    !- Name
    Window,                   !- Surface Type
    HSCWZ_Public&Industrial_1995_Win,    !- Construction Name
    Block Poly_57_Administration Storey 3 Wall 0002,    !- Building Surface Name
    ,                         !- Outside Boundary Condition Object
    autocalculate,            !- View Factor to Ground
    ,                         !- Frame and Divider Name
    1,                        !- Multiplier
    autocalculate,            !- Number of Vertices
    5.613431753770507,        !- Vertex 1 Xcoordinate
    41.13120262119128,        !- Vertex 1 Ycoordinate
    11.025,                   !- Vertex 1 Zcoordinate
    5.613431753770507,        !- Vertex 2 Xcoordinate
    41.13120262119128,        !- Vertex 2 Ycoordinate
    9.975,                    !- Vertex 2 Zcoordinate
    2.3921875592152935,       !- Vertex 3 Xcoordinate
    35.418428753696844,       !- Vertex 3 Ycoordinate
    9.975,                    !- Vertex 3 Zcoordinate
    2.3921875592152935,       !- Vertex 4 Xcoordinate
    35.418428753696844,       !- Vertex 4 Ycoordinate
    11.025;                   !- Vertex 4 Zcoordinate

FENESTRATIONSURFACE:DETAILED,
    Block Poly_57_Administration Storey 3 Wall 0003 window,    !- Name
    Window,                   !- Surface Type
    HSCWZ_Public&Industrial_1995_Win,    !- Construction Name
    Block Poly_57_Administration Storey 3 Wall 0003,    !- Building Surface Name
    ,                         !- Outside Boundary Condition Object
    autocalculate,            !- View Factor to Ground
    ,                         !- Frame and Divider Name
    1,                        !- Multiplier
    autocalculate,            !- Number of Vertices
    2.3893800372212426,       !- Vertex 1 Xcoordinate
    35.411928068678826,       !- Vertex 1 Ycoordinate
    11.025,                   !- Vertex 1 Zcoordinate
    2.3893800372212426,       !- Vertex 2 Xcoordinate
    35.411928068678826,       !- Vertex 2 Ycoordinate
    9.975,                    !- Vertex 2 Zcoordinate
    0.001195288,              !- Vertex 3 Xcoordinate
    28.136333270166066,       !- Vertex 3 Ycoordinate
    9.975,                    !- Vertex 3 Zcoordinate
    0.001195288,              !- Vertex 4 Xcoordinate
    28.136333270166066,       !- Vertex 4 Ycoordinate
    11.025;                   !- Vertex 4 Zcoordinate

FENESTRATIONSURFACE:DETAILED,
    Block Poly_57_Administration Storey 3 Wall 0004 window,    !- Name
    Window,                   !- Surface Type
    HSCWZ_Public&Industrial_1995_Win,    !- Construction Name
    Block Poly_57_Administration Storey 3 Wall 0004,    !- Building Surface Name
    ,                         !- Outside Boundary Condition Object
    autocalculate,            !- View Factor to Ground
    ,                         !- Frame and Divider Name
    1,                        !- Multiplier
    autocalculate,            !- Number of Vertices
    0.0003516034,             !- Vertex 1 Xcoordinate
    28.130690973516085,       !- Vertex 1 Ycoordinate
    11.025,                   !- Vertex 1 Zcoordinate
    0.0003516034,             !- Vertex 2 Xcoordinate
    28.130690973516085,       !- Vertex 2 Ycoordinate
    9.975,                    !- Vertex 2 Zcoordinate
    0.7028552701784647,       !- Vertex 3 Xcoordinate
    24.132977065366227,       !- Vertex 3 Ycoordinate
    9.975,                    !- Vertex 3 Zcoordinate
    0.7028552701784647,       !- Vertex 4 Xcoordinate
    24.132977065366227,       !- Vertex 4 Ycoordinate
    11.025;                   !- Vertex 4 Zcoordinate

FENESTRATIONSURFACE:DETAILED,
    Block Poly_57_Administration Storey 3 Wall 0005 window,    !- Name
    Window,                   !- Surface Type
    HSCWZ_Public&Industrial_1995_Win,    !- Construction Name
    Block Poly_57_Administration Storey 3 Wall 0005,    !- Building Surface Name
    ,                         !- Outside Boundary Condition Object
    autocalculate,            !- View Factor to Ground
    ,                         !- Frame and Divider Name
    1,                        !- Multiplier
    autocalculate,            !- Number of Vertices
    0.7049690289538413,       !- Vertex 1 Xcoordinate
    24.12779062412982,        !- Vertex 1 Ycoordinate
    11.025,                   !- Vertex 1 Zcoordinate
    0.7049690289538413,       !- Vertex 2 Xcoordinate
    24.12779062412982,        !- Vertex 2 Ycoordinate
    9.975,                    !- Vertex 2 Zcoordinate
    4.225755395414395,        !- Vertex 3 Xcoordinate
    17.76299494193564,        !- Vertex 3 Ycoordinate
    9.975,                    !- Vertex 3 Zcoordinate
    4.225755395414395,        !- Vertex 4 Xcoordinate
    17.76299494193564,        !- Vertex 4 Ycoordinate
    11.025;                   !- Vertex 4 Zcoordinate

FENESTRATIONSURFACE:DETAILED,
    Block Poly_57_Administration Storey 3 Wall 0006 window,    !- Name
    Window,                   !- Surface Type
    HSCWZ_Public&Industrial_1995_Win,    !- Construction Name
    Block Poly_57_Administration Storey 3 Wall 0006,    !- Building Surface Name
    ,                         !- Outside Boundary Condition Object
    autocalculate,            !- View Factor to Ground
    ,                         !- Frame and Divider Name
    1,                        !- Multiplier
    autocalculate,            !- Number of Vertices
    4.230987872454833,        !- Vertex 1 Xcoordinate
    17.756266272990267,       !- Vertex 1 Ycoordinate
    11.025,                   !- Vertex 1 Zcoordinate
    4.230987872454833,        !- Vertex 2 Xcoordinate
    17.756266272990267,       !- Vertex 2 Ycoordinate
    9.975,                    !- Vertex 2 Zcoordinate
    11.164690632788435,       !- Vertex 3 Xcoordinate
    10.677181402323534,       !- Vertex 3 Ycoordinate
    9.975,                    !- Vertex 3 Zcoordinate
    11.164690632788435,       !- Vertex 4 Xcoordinate
    10.677181402323534,       !- Vertex 4 Ycoordinate
    11.025;                   !- Vertex 4 Zcoordinate

FENESTRATIONSURFACE:DETAILED,
    Block Poly_57_Administration Storey 3 Wall 0007 window,    !- Name
    Window,                   !- Surface Type
    HSCWZ_Public&Industrial_1995_Win,    !- Construction Name
    Block Poly_57_Administration Storey 3 Wall 0007,    !- Building Surface Name
    ,                         !- Outside Boundary Condition Object
    autocalculate,            !- View Factor to Ground
    ,                         !- Frame and Divider Name
    1,                        !- Multiplier
    autocalculate,            !- Number of Vertices
    11.172403112356522,       !- Vertex 1 Xcoordinate
    10.67080467490712,        !- Vertex 1 Ycoordinate
    11.025,                   !- Vertex 1 Zcoordinate
    11.172403112356522,       !- Vertex 2 Xcoordinate
    10.67080467490712,        !- Vertex 2 Ycoordinate
    9.975,                    !- Vertex 2 Zcoordinate
    19.648234529059877,       !- Vertex 3 Xcoordinate
    5.009188167580869,        !- Vertex 3 Ycoordinate
    9.975,                    !- Vertex 3 Zcoordinate
    19.648234529059877,       !- Vertex 4 Xcoordinate
    5.009188167580869,        !- Vertex 4 Ycoordinate
    11.025;                   !- Vertex 4 Zcoordinate

FENESTRATIONSURFACE:DETAILED,
    Block Poly_57_Administration Storey 3 Wall 0008 window,    !- Name
    Window,                   !- Surface Type
    HSCWZ_Public&Industrial_1995_Win,    !- Construction Name
    Block Poly_57_Administration Storey 3 Wall 0008,    !- Building Surface Name
    ,                         !- Outside Boundary Condition Object
    autocalculate,            !- View Factor to Ground
    ,                         !- Frame and Divider Name
    1,                        !- Multiplier
    autocalculate,            !- Number of Vertices
    19.656499496744217,       !- Vertex 1 Xcoordinate
    5.00479913545982,         !- Vertex 1 Ycoordinate
    11.025,                   !- Vertex 1 Zcoordinate
    19.656499496744217,       !- Vertex 2 Xcoordinate
    5.00479913545982,         !- Vertex 2 Ycoordinate
    9.975,                    !- Vertex 2 Zcoordinate
    27.694073513358163,       !- Vertex 3 Xcoordinate
    1.8971294649296906,       !- Vertex 3 Ycoordinate
    9.975,                    !- Vertex 3 Zcoordinate
    27.694073513358163,       !- Vertex 4 Xcoordinate
    1.8971294649296906,       !- Vertex 4 Ycoordinate
    11.025;                   !- Vertex 4 Zcoordinate

FENESTRATIONSURFACE:DETAILED,
    Block Poly_57_Administration Storey 3 Wall 0009 window,    !- Name
    Window,                   !- Surface Type
    HSCWZ_Public&Industrial_1995_Win,    !- Construction Name
    Block Poly_57_Administration Storey 3 Wall 0009,    !- Building Surface Name
    ,                         !- Outside Boundary Condition Object
    autocalculate,            !- View Factor to Ground
    ,                         !- Frame and Divider Name
    1,                        !- Multiplier
    autocalculate,            !- Number of Vertices
    27.702270764697808,       !- Vertex 1 Xcoordinate
    1.8946262876668478,       !- Vertex 1 Ycoordinate
    11.025,                   !- Vertex 1 Zcoordinate
    27.702270764697808,       !- Vertex 2 Xcoordinate
    1.8946262876668478,       !- Vertex 2 Ycoordinate
    9.975,                    !- Vertex 2 Zcoordinate
    36.04280492469808,        !- Vertex 3 Xcoordinate
    0.000947787,              !- Vertex 3 Ycoordinate
    9.975,                    !- Vertex 3 Zcoordinate
    36.04280492469808,        !- Vertex 4 Xcoordinate
    0.000947787,              !- Vertex 4 Ycoordinate
    11.025;                   !- Vertex 4 Zcoordinate

FENESTRATIONSURFACE:DETAILED,
    Block Poly_57_Administration Storey 3 Wall 0010 window,    !- Name
    Window,                   !- Surface Type
    HSCWZ_Public&Industrial_1995_Win,    !- Construction Name
    Block Poly_57_Administration Storey 3 Wall 0010,    !- Building Surface Name
    ,                         !- Outside Boundary Condition Object
    autocalculate,            !- View Factor to Ground
    ,                         !- Frame and Divider Name
    1,                        !- Multiplier
    autocalculate,            !- Number of Vertices
    36.050507009309456,       !- Vertex 1 Xcoordinate
    0.0003921256,             !- Vertex 1 Ycoordinate
    11.025,                   !- Vertex 1 Zcoordinate
    36.050507009309456,       !- Vertex 2 Xcoordinate
    0.0003921256,             !- Vertex 2 Ycoordinate
    9.975,                    !- Vertex 2 Zcoordinate
    43.098737902833875,       !- Vertex 3 Xcoordinate
    0.7838590129986405,       !- Vertex 3 Ycoordinate
    9.975,                    !- Vertex 3 Zcoordinate
    43.098737902833875,       !- Vertex 4 Xcoordinate
    0.7838590129986405,       !- Vertex 4 Ycoordinate
    11.025;                   !- Vertex 4 Zcoordinate

FENESTRATIONSURFACE:DETAILED,
    Block Poly_57_Administration Storey 3 Wall 0011 window,    !- Name
    Window,                   !- Surface Type
    HSCWZ_Public&Industrial_1995_Win,    !- Construction Name
    Block Poly_57_Administration Storey 3 Wall 0011,    !- Building Surface Name
    ,                         !- Outside Boundary Condition Object
    autocalculate,            !- View Factor to Ground
    ,                         !- Frame and Divider Name
    1,                        !- Multiplier
    autocalculate,            !- Number of Vertices
    43.10556818367119,        !- Vertex 1 Xcoordinate
    0.7855335365219507,       !- Vertex 1 Ycoordinate
    11.025,                   !- Vertex 1 Zcoordinate
    43.10556818367119,        !- Vertex 2 Xcoordinate
    0.7855335365219507,       !- Vertex 2 Ycoordinate
    9.975,                    !- Vertex 2 Zcoordinate
    49.70423840309589,        !- Vertex 3 Xcoordinate
    3.347764648666373,        !- Vertex 3 Ycoordinate
    9.975,                    !- Vertex 3 Zcoordinate
    49.70423840309589,        !- Vertex 4 Xcoordinate
    3.347764648666373,        !- Vertex 4 Ycoordinate
    11.025;                   !- Vertex 4 Zcoordinate

FENESTRATIONSURFACE:DETAILED,
    Block Poly_57_Administration Storey 3 Wall 0012 window,    !- Name
    Window,                   !- Surface Type
    HSCWZ_Public&Industrial_1995_Win,    !- Construction Name
    Block Poly_57_Administration Storey 3 Wall 0012,    !- Building Surface Name
    ,                         !- Outside Boundary Condition Object
    autocalculate,            !- View Factor to Ground
    ,                         !- Frame and Divider Name
    1,                        !- Multiplier
    autocalculate,            !- Number of Vertices
    49.70991056779289,        !- Vertex 1 Xcoordinate
    3.3516180869177914,       !- Vertex 1 Ycoordinate
    11.025,                   !- Vertex 1 Zcoordinate
    49.70991056779289,        !- Vertex 2 Xcoordinate
    3.3516180869177914,       !- Vertex 2 Ycoordinate
    9.975,                    !- Vertex 2 Zcoordinate
    54.444225412966865,       !- Vertex 3 Xcoordinate
    8.488556601108517,        !- Vertex 3 Ycoordinate
    9.975,                    !- Vertex 3 Zcoordinate
    54.444225412966865,       !- Vertex 4 Xcoordinate
    8.488556601108517,        !- Vertex 4 Ycoordinate
    11.025;                   !- Vertex 4 Zcoordinate

FENESTRATIONSURFACE:DETAILED,
    Block Poly_57_Administration Storey 3 Wall 0013 window,    !- Name
    Window,                   !- Surface Type
    HSCWZ_Public&Industrial_1995_Win,    !- Construction Name
    Block Poly_57_Administration Storey 3 Wall 0013,    !- Building Surface Name
    ,                         !- Outside Boundary Condition Object
    autocalculate,            !- View Factor to Ground
    ,                         !- Frame and Divider Name
    1,                        !- Multiplier
    autocalculate,            !- Number of Vertices
    54.44861204257079,        !- Vertex 1 Xcoordinate
    8.49564411272225,         !- Vertex 1 Ycoordinate
    11.025,                   !- Vertex 1 Zcoordinate
    54.44861204257079,        !- Vertex 2 Xcoordinate
    8.49564411272225,         !- Vertex 2 Ycoordinate
    9.975,                    !- Vertex 2 Zcoordinate
    58.478783146028114,       !- Vertex 3 Xcoordinate
    17.519553802768467,       !- Vertex 3 Ycoordinate
    9.975,                    !- Vertex 3 Zcoordinate
    58.478783146028114,       !- Vertex 4 Xcoordinate
    17.519553802768467,       !- Vertex 4 Ycoordinate
    11.025;                   !- Vertex 4 Zcoordinate

FENESTRATIONSURFACE:DETAILED,
    Block Poly_57_Administration Storey 3 Wall 0014 window,    !- Name
    Window,                   !- Surface Type
    HSCWZ_Public&Industrial_1995_Win,    !- Construction Name
    Block Poly_57_Administration Storey 3 Wall 0014,    !- Building Surface Name
    ,                         !- Outside Boundary Condition Object
    autocalculate,            !- View Factor to Ground
    ,                         !- Frame and Divider Name
    1,                        !- Multiplier
    autocalculate,            !- Number of Vertices
    58.48049221426883,        !- Vertex 1 Xcoordinate
    17.52906409838586,        !- Vertex 1 Ycoordinate
    11.025,                   !- Vertex 1 Zcoordinate
    58.48049221426883,        !- Vertex 2 Xcoordinate
    17.52906409838586,        !- Vertex 2 Ycoordinate
    9.975,                    !- Vertex 2 Zcoordinate
    57.865039455758584,       !- Vertex 3 Xcoordinate
    27.506725051893156,       !- Vertex 3 Ycoordinate
    9.975,                    !- Vertex 3 Zcoordinate
    57.865039455758584,       !- Vertex 4 Xcoordinate
    27.506725051893156,       !- Vertex 4 Ycoordinate
    11.025;                   !- Vertex 4 Zcoordinate

FENESTRATIONSURFACE:DETAILED,
    Block Poly_57_Administration Storey 3 Wall 0015 window,    !- Name
    Window,                   !- Surface Type
    HSCWZ_Public&Industrial_1995_Win,    !- Construction Name
    Block Poly_57_Administration Storey 3 Wall 0015,    !- Building Surface Name
    ,                         !- Outside Boundary Condition Object
    autocalculate,            !- View Factor to Ground
    ,                         !- Frame and Divider Name
    1,                        !- Multiplier
    autocalculate,            !- Number of Vertices
    57.863742692922884,       !- Vertex 1 Xcoordinate
    27.51572474440001,        !- Vertex 1 Ycoordinate
    11.025,                   !- Vertex 1 Zcoordinate
    57.863742692922884,       !- Vertex 2 Xcoordinate
    27.51572474440001,        !- Vertex 2 Ycoordinate
    9.975,                    !- Vertex 2 Zcoordinate
    55.8882633057044,         !- Vertex 3 Xcoordinate
    35.51944941958971,        !- Vertex 3 Ycoordinate
    9.975,                    !- Vertex 3 Zcoordinate
    55.8882633057044,         !- Vertex 4 Xcoordinate
    35.51944941958971,        !- Vertex 4 Ycoordinate
    11.025;                   !- Vertex 4 Zcoordinate

FENESTRATIONSURFACE:DETAILED,
    Block Poly_57_Administration Storey 3 Wall 0016 window,    !- Name
    Window,                   !- Surface Type
    HSCWZ_Public&Industrial_1995_Win,    !- Construction Name
    Block Poly_57_Administration Storey 3 Wall 0016,    !- Building Surface Name
    ,                         !- Outside Boundary Condition Object
    autocalculate,            !- View Factor to Ground
    ,                         !- Frame and Divider Name
    1,                        !- Multiplier
    autocalculate,            !- Number of Vertices
    55.88397766980194,        !- Vertex 1 Xcoordinate
    35.5291024430641,         !- Vertex 1 Ycoordinate
    11.025,                   !- Vertex 1 Zcoordinate
    55.88397766980194,        !- Vertex 2 Xcoordinate
    35.5291024430641,         !- Vertex 2 Ycoordinate
    9.975,                    !- Vertex 2 Zcoordinate
    49.29675652390728,        !- Vertex 3 Xcoordinate
    46.812118669693824,       !- Vertex 3 Ycoordinate
    9.975,                    !- Vertex 3 Zcoordinate
    49.29675652390728,        !- Vertex 4 Xcoordinate
    46.812118669693824,       !- Vertex 4 Ycoordinate
    11.025;                   !- Vertex 4 Zcoordinate

FENESTRATIONSURFACE:DETAILED,
    Block Poly_57_Administration Storey 3 Wall 0017 window,    !- Name
    Window,                   !- Surface Type
    HSCWZ_Public&Industrial_1995_Win,    !- Construction Name
    Block Poly_57_Administration Storey 3 Wall 0017,    !- Building Surface Name
    ,                         !- Outside Boundary Condition Object
    autocalculate,            !- View Factor to Ground
    ,                         !- Frame and Divider Name
    1,                        !- Multiplier
    autocalculate,            !- Number of Vertices
    49.29139903931818,        !- Vertex 1 Xcoordinate
    46.82006875245413,        !- Vertex 1 Ycoordinate
    11.025,                   !- Vertex 1 Zcoordinate
    49.29139903931818,        !- Vertex 2 Xcoordinate
    46.82006875245413,        !- Vertex 2 Ycoordinate
    9.975,                    !- Vertex 2 Zcoordinate
    45.174365976195,          !- Vertex 3 Xcoordinate
    51.42131788091222,        !- Vertex 3 Ycoordinate
    9.975,                    !- Vertex 3 Zcoordinate
    45.174365976195,          !- Vertex 4 Xcoordinate
    51.42131788091222,        !- Vertex 4 Ycoordinate
    11.025;                   !- Vertex 4 Zcoordinate

FENESTRATIONSURFACE:DETAILED,
    Block Poly_57_Administration Storey 3 Wall 0018 window,    !- Name
    Window,                   !- Surface Type
    HSCWZ_Public&Industrial_1995_Win,    !- Construction Name
    Block Poly_57_Administration Storey 3 Wall 0018,    !- Building Surface Name
    ,                         !- Outside Boundary Condition Object
    autocalculate,            !- View Factor to Ground
    ,                         !- Frame and Divider Name
    1,                        !- Multiplier
    autocalculate,            !- Number of Vertices
    45.16804549694242,        !- Vertex 1 Xcoordinate
    51.425235082821686,       !- Vertex 1 Ycoordinate
    11.025,                   !- Vertex 1 Zcoordinate
    45.16804549694242,        !- Vertex 2 Xcoordinate
    51.425235082821686,       !- Vertex 2 Ycoordinate
    9.975,                    !- Vertex 2 Zcoordinate
    36.65676101341198,        !- Vertex 3 Xcoordinate
    54.65055536948354,        !- Vertex 3 Ycoordinate
    9.975,                    !- Vertex 3 Zcoordinate
    36.65676101341198,        !- Vertex 4 Xcoordinate
    54.65055536948354,        !- Vertex 4 Ycoordinate
    11.025;                   !- Vertex 4 Zcoordinate

FENESTRATIONSURFACE:DETAILED,
    Block Poly_57_Administration Storey 3 Wall 0019 window,    !- Name
    Window,                   !- Surface Type
    HSCWZ_Public&Industrial_1995_Win,    !- Construction Name
    Block Poly_57_Administration Storey 3 Wall 0019,    !- Building Surface Name
    ,                         !- Outside Boundary Condition Object
    autocalculate,            !- View Factor to Ground
    ,                         !- Frame and Divider Name
    1,                        !- Multiplier
    autocalculate,            !- Number of Vertices
    36.64897752178327,        !- Vertex 1 Xcoordinate
    54.65205464795139,        !- Vertex 1 Ycoordinate
    11.025,                   !- Vertex 1 Zcoordinate
    36.64897752178327,        !- Vertex 2 Xcoordinate
    54.65205464795139,        !- Vertex 2 Ycoordinate
    9.975,                    !- Vertex 2 Zcoordinate
    29.608845731150765,       !- Vertex 3 Xcoordinate
    54.42229274004791,        !- Vertex 3 Ycoordinate
    9.975,                    !- Vertex 3 Zcoordinate
    29.608845731150765,       !- Vertex 4 Xcoordinate
    54.42229274004791,        !- Vertex 4 Ycoordinate
    11.025;                   !- Vertex 4 Zcoordinate

FENESTRATIONSURFACE:DETAILED,
    Block Poly_57_Administration Storey 3 Wall 0020 window,    !- Name
    Window,                   !- Surface Type
    HSCWZ_Public&Industrial_1995_Win,    !- Construction Name
    Block Poly_57_Administration Storey 3 Wall 0020,    !- Building Surface Name
    ,                         !- Outside Boundary Condition Object
    autocalculate,            !- View Factor to Ground
    ,                         !- Frame and Divider Name
    1,                        !- Multiplier
    autocalculate,            !- Number of Vertices
    29.600970261007692,       !- Vertex 1 Xcoordinate
    54.42074432339356,        !- Vertex 1 Ycoordinate
    11.025,                   !- Vertex 1 Zcoordinate
    29.600970261007692,       !- Vertex 2 Xcoordinate
    54.42074432339356,        !- Vertex 2 Ycoordinate
    9.975,                    !- Vertex 2 Zcoordinate
    20.905912705779397,       !- Vertex 3 Xcoordinate
    51.55676975591271,        !- Vertex 3 Ycoordinate
    9.975,                    !- Vertex 3 Zcoordinate
    20.905912705779397,       !- Vertex 4 Xcoordinate
    51.55676975591271,        !- Vertex 4 Ycoordinate
    11.025;                   !- Vertex 4 Zcoordinate

FENESTRATIONSURFACE:DETAILED,
    Block Poly_57_Administration Storey 3 Wall 0021 window,    !- Name
    Window,                   !- Surface Type
    HSCWZ_Public&Industrial_1995_Win,    !- Construction Name
    Block Poly_57_Administration Storey 3 Wall 0021,    !- Building Surface Name
    ,                         !- Outside Boundary Condition Object
    autocalculate,            !- View Factor to Ground
    ,                         !- Frame and Divider Name
    1,                        !- Multiplier
    autocalculate,            !- Number of Vertices
    20.895895127728522,       !- Vertex 1 Xcoordinate
    51.55192631815514,        !- Vertex 1 Ycoordinate
    11.025,                   !- Vertex 1 Zcoordinate
    20.895895127728522,       !- Vertex 2 Xcoordinate
    51.55192631815514,        !- Vertex 2 Ycoordinate
    9.975,                    !- Vertex 2 Zcoordinate
    9.575831737313479,        !- Vertex 3 Xcoordinate
    44.738712245999366,       !- Vertex 3 Ycoordinate
    9.975,                    !- Vertex 3 Zcoordinate
    9.575831737313479,        !- Vertex 4 Xcoordinate
    44.738712245999366,       !- Vertex 4 Ycoordinate
    11.025;                   !- Vertex 4 Zcoordinate

FENESTRATIONSURFACE:DETAILED,
    Block Poly_57_Administration Storey 4 Wall 0001 window,    !- Name
    Window,                   !- Surface Type
    HSCWZ_Public&Industrial_1995_Win,    !- Construction Name
    Block Poly_57_Administration Storey 4 Wall 0001,    !- Building Surface Name
    ,                         !- Outside Boundary Condition Object
    autocalculate,            !- View Factor to Ground
    ,                         !- Frame and Divider Name
    1,                        !- Multiplier
    autocalculate,            !- Number of Vertices
    9.568188478894967,        !- Vertex 1 Xcoordinate
    44.73350160876545,        !- Vertex 1 Ycoordinate
    14.025,                   !- Vertex 1 Zcoordinate
    9.568188478894967,        !- Vertex 2 Xcoordinate
    44.73350160876545,        !- Vertex 2 Ycoordinate
    12.975,                   !- Vertex 2 Zcoordinate
    5.617021549128025,        !- Vertex 3 Xcoordinate
    41.13586248755199,        !- Vertex 3 Ycoordinate
    12.975,                   !- Vertex 3 Zcoordinate
    5.617021549128025,        !- Vertex 4 Xcoordinate
    41.13586248755199,        !- Vertex 4 Ycoordinate
    14.025;                   !- Vertex 4 Zcoordinate

FENESTRATIONSURFACE:DETAILED,
    Block Poly_57_Administration Storey 4 Wall 0002 window,    !- Name
    Window,                   !- Surface Type
    HSCWZ_Public&Industrial_1995_Win,    !- Construction Name
    Block Poly_57_Administration Storey 4 Wall 0002,    !- Building Surface Name
    ,                         !- Outside Boundary Condition Object
    autocalculate,            !- View Factor to Ground
    ,                         !- Frame and Divider Name
    1,                        !- Multiplier
    autocalculate,            !- Number of Vertices
    5.613431753770507,        !- Vertex 1 Xcoordinate
    41.13120262119128,        !- Vertex 1 Ycoordinate
    14.025,                   !- Vertex 1 Zcoordinate
    5.613431753770507,        !- Vertex 2 Xcoordinate
    41.13120262119128,        !- Vertex 2 Ycoordinate
    12.975,                   !- Vertex 2 Zcoordinate
    2.3921875592152935,       !- Vertex 3 Xcoordinate
    35.418428753696844,       !- Vertex 3 Ycoordinate
    12.975,                   !- Vertex 3 Zcoordinate
    2.3921875592152935,       !- Vertex 4 Xcoordinate
    35.418428753696844,       !- Vertex 4 Ycoordinate
    14.025;                   !- Vertex 4 Zcoordinate

FENESTRATIONSURFACE:DETAILED,
    Block Poly_57_Administration Storey 4 Wall 0003 window,    !- Name
    Window,                   !- Surface Type
    HSCWZ_Public&Industrial_1995_Win,    !- Construction Name
    Block Poly_57_Administration Storey 4 Wall 0003,    !- Building Surface Name
    ,                         !- Outside Boundary Condition Object
    autocalculate,            !- View Factor to Ground
    ,                         !- Frame and Divider Name
    1,                        !- Multiplier
    autocalculate,            !- Number of Vertices
    2.3893800372212426,       !- Vertex 1 Xcoordinate
    35.411928068678826,       !- Vertex 1 Ycoordinate
    14.025,                   !- Vertex 1 Zcoordinate
    2.3893800372212426,       !- Vertex 2 Xcoordinate
    35.411928068678826,       !- Vertex 2 Ycoordinate
    12.975,                   !- Vertex 2 Zcoordinate
    0.001195288,              !- Vertex 3 Xcoordinate
    28.136333270166066,       !- Vertex 3 Ycoordinate
    12.975,                   !- Vertex 3 Zcoordinate
    0.001195288,              !- Vertex 4 Xcoordinate
    28.136333270166066,       !- Vertex 4 Ycoordinate
    14.025;                   !- Vertex 4 Zcoordinate

FENESTRATIONSURFACE:DETAILED,
    Block Poly_57_Administration Storey 4 Wall 0004 window,    !- Name
    Window,                   !- Surface Type
    HSCWZ_Public&Industrial_1995_Win,    !- Construction Name
    Block Poly_57_Administration Storey 4 Wall 0004,    !- Building Surface Name
    ,                         !- Outside Boundary Condition Object
    autocalculate,            !- View Factor to Ground
    ,                         !- Frame and Divider Name
    1,                        !- Multiplier
    autocalculate,            !- Number of Vertices
    0.0003516034,             !- Vertex 1 Xcoordinate
    28.130690973516085,       !- Vertex 1 Ycoordinate
    14.025,                   !- Vertex 1 Zcoordinate
    0.0003516034,             !- Vertex 2 Xcoordinate
    28.130690973516085,       !- Vertex 2 Ycoordinate
    12.975,                   !- Vertex 2 Zcoordinate
    0.7028552701784647,       !- Vertex 3 Xcoordinate
    24.132977065366227,       !- Vertex 3 Ycoordinate
    12.975,                   !- Vertex 3 Zcoordinate
    0.7028552701784647,       !- Vertex 4 Xcoordinate
    24.132977065366227,       !- Vertex 4 Ycoordinate
    14.025;                   !- Vertex 4 Zcoordinate

FENESTRATIONSURFACE:DETAILED,
    Block Poly_57_Administration Storey 4 Wall 0005 window,    !- Name
    Window,                   !- Surface Type
    HSCWZ_Public&Industrial_1995_Win,    !- Construction Name
    Block Poly_57_Administration Storey 4 Wall 0005,    !- Building Surface Name
    ,                         !- Outside Boundary Condition Object
    autocalculate,            !- View Factor to Ground
    ,                         !- Frame and Divider Name
    1,                        !- Multiplier
    autocalculate,            !- Number of Vertices
    0.7049690289538413,       !- Vertex 1 Xcoordinate
    24.12779062412982,        !- Vertex 1 Ycoordinate
    14.025,                   !- Vertex 1 Zcoordinate
    0.7049690289538413,       !- Vertex 2 Xcoordinate
    24.12779062412982,        !- Vertex 2 Ycoordinate
    12.975,                   !- Vertex 2 Zcoordinate
    4.225755395414395,        !- Vertex 3 Xcoordinate
    17.76299494193564,        !- Vertex 3 Ycoordinate
    12.975,                   !- Vertex 3 Zcoordinate
    4.225755395414395,        !- Vertex 4 Xcoordinate
    17.76299494193564,        !- Vertex 4 Ycoordinate
    14.025;                   !- Vertex 4 Zcoordinate

FENESTRATIONSURFACE:DETAILED,
    Block Poly_57_Administration Storey 4 Wall 0006 window,    !- Name
    Window,                   !- Surface Type
    HSCWZ_Public&Industrial_1995_Win,    !- Construction Name
    Block Poly_57_Administration Storey 4 Wall 0006,    !- Building Surface Name
    ,                         !- Outside Boundary Condition Object
    autocalculate,            !- View Factor to Ground
    ,                         !- Frame and Divider Name
    1,                        !- Multiplier
    autocalculate,            !- Number of Vertices
    4.230987872454833,        !- Vertex 1 Xcoordinate
    17.756266272990267,       !- Vertex 1 Ycoordinate
    14.025,                   !- Vertex 1 Zcoordinate
    4.230987872454833,        !- Vertex 2 Xcoordinate
    17.756266272990267,       !- Vertex 2 Ycoordinate
    12.975,                   !- Vertex 2 Zcoordinate
    11.164690632788435,       !- Vertex 3 Xcoordinate
    10.677181402323534,       !- Vertex 3 Ycoordinate
    12.975,                   !- Vertex 3 Zcoordinate
    11.164690632788435,       !- Vertex 4 Xcoordinate
    10.677181402323534,       !- Vertex 4 Ycoordinate
    14.025;                   !- Vertex 4 Zcoordinate

FENESTRATIONSURFACE:DETAILED,
    Block Poly_57_Administration Storey 4 Wall 0007 window,    !- Name
    Window,                   !- Surface Type
    HSCWZ_Public&Industrial_1995_Win,    !- Construction Name
    Block Poly_57_Administration Storey 4 Wall 0007,    !- Building Surface Name
    ,                         !- Outside Boundary Condition Object
    autocalculate,            !- View Factor to Ground
    ,                         !- Frame and Divider Name
    1,                        !- Multiplier
    autocalculate,            !- Number of Vertices
    11.172403112356522,       !- Vertex 1 Xcoordinate
    10.67080467490712,        !- Vertex 1 Ycoordinate
    14.025,                   !- Vertex 1 Zcoordinate
    11.172403112356522,       !- Vertex 2 Xcoordinate
    10.67080467490712,        !- Vertex 2 Ycoordinate
    12.975,                   !- Vertex 2 Zcoordinate
    19.648234529059877,       !- Vertex 3 Xcoordinate
    5.009188167580869,        !- Vertex 3 Ycoordinate
    12.975,                   !- Vertex 3 Zcoordinate
    19.648234529059877,       !- Vertex 4 Xcoordinate
    5.009188167580869,        !- Vertex 4 Ycoordinate
    14.025;                   !- Vertex 4 Zcoordinate

FENESTRATIONSURFACE:DETAILED,
    Block Poly_57_Administration Storey 4 Wall 0008 window,    !- Name
    Window,                   !- Surface Type
    HSCWZ_Public&Industrial_1995_Win,    !- Construction Name
    Block Poly_57_Administration Storey 4 Wall 0008,    !- Building Surface Name
    ,                         !- Outside Boundary Condition Object
    autocalculate,            !- View Factor to Ground
    ,                         !- Frame and Divider Name
    1,                        !- Multiplier
    autocalculate,            !- Number of Vertices
    19.656499496744217,       !- Vertex 1 Xcoordinate
    5.00479913545982,         !- Vertex 1 Ycoordinate
    14.025,                   !- Vertex 1 Zcoordinate
    19.656499496744217,       !- Vertex 2 Xcoordinate
    5.00479913545982,         !- Vertex 2 Ycoordinate
    12.975,                   !- Vertex 2 Zcoordinate
    27.694073513358163,       !- Vertex 3 Xcoordinate
    1.8971294649296906,       !- Vertex 3 Ycoordinate
    12.975,                   !- Vertex 3 Zcoordinate
    27.694073513358163,       !- Vertex 4 Xcoordinate
    1.8971294649296906,       !- Vertex 4 Ycoordinate
    14.025;                   !- Vertex 4 Zcoordinate

FENESTRATIONSURFACE:DETAILED,
    Block Poly_57_Administration Storey 4 Wall 0009 window,    !- Name
    Window,                   !- Surface Type
    HSCWZ_Public&Industrial_1995_Win,    !- Construction Name
    Block Poly_57_Administration Storey 4 Wall 0009,    !- Building Surface Name
    ,                         !- Outside Boundary Condition Object
    autocalculate,            !- View Factor to Ground
    ,                         !- Frame and Divider Name
    1,                        !- Multiplier
    autocalculate,            !- Number of Vertices
    27.702270764697808,       !- Vertex 1 Xcoordinate
    1.8946262876668478,       !- Vertex 1 Ycoordinate
    14.025,                   !- Vertex 1 Zcoordinate
    27.702270764697808,       !- Vertex 2 Xcoordinate
    1.8946262876668478,       !- Vertex 2 Ycoordinate
    12.975,                   !- Vertex 2 Zcoordinate
    36.04280492469808,        !- Vertex 3 Xcoordinate
    0.000947787,              !- Vertex 3 Ycoordinate
    12.975,                   !- Vertex 3 Zcoordinate
    36.04280492469808,        !- Vertex 4 Xcoordinate
    0.000947787,              !- Vertex 4 Ycoordinate
    14.025;                   !- Vertex 4 Zcoordinate

FENESTRATIONSURFACE:DETAILED,
    Block Poly_57_Administration Storey 4 Wall 0010 window,    !- Name
    Window,                   !- Surface Type
    HSCWZ_Public&Industrial_1995_Win,    !- Construction Name
    Block Poly_57_Administration Storey 4 Wall 0010,    !- Building Surface Name
    ,                         !- Outside Boundary Condition Object
    autocalculate,            !- View Factor to Ground
    ,                         !- Frame and Divider Name
    1,                        !- Multiplier
    autocalculate,            !- Number of Vertices
    36.050507009309456,       !- Vertex 1 Xcoordinate
    0.0003921256,             !- Vertex 1 Ycoordinate
    14.025,                   !- Vertex 1 Zcoordinate
    36.050507009309456,       !- Vertex 2 Xcoordinate
    0.0003921256,             !- Vertex 2 Ycoordinate
    12.975,                   !- Vertex 2 Zcoordinate
    43.098737902833875,       !- Vertex 3 Xcoordinate
    0.7838590129986405,       !- Vertex 3 Ycoordinate
    12.975,                   !- Vertex 3 Zcoordinate
    43.098737902833875,       !- Vertex 4 Xcoordinate
    0.7838590129986405,       !- Vertex 4 Ycoordinate
    14.025;                   !- Vertex 4 Zcoordinate

FENESTRATIONSURFACE:DETAILED,
    Block Poly_57_Administration Storey 4 Wall 0011 window,    !- Name
    Window,                   !- Surface Type
    HSCWZ_Public&Industrial_1995_Win,    !- Construction Name
    Block Poly_57_Administration Storey 4 Wall 0011,    !- Building Surface Name
    ,                         !- Outside Boundary Condition Object
    autocalculate,            !- View Factor to Ground
    ,                         !- Frame and Divider Name
    1,                        !- Multiplier
    autocalculate,            !- Number of Vertices
    43.10556818367119,        !- Vertex 1 Xcoordinate
    0.7855335365219507,       !- Vertex 1 Ycoordinate
    14.025,                   !- Vertex 1 Zcoordinate
    43.10556818367119,        !- Vertex 2 Xcoordinate
    0.7855335365219507,       !- Vertex 2 Ycoordinate
    12.975,                   !- Vertex 2 Zcoordinate
    49.70423840309589,        !- Vertex 3 Xcoordinate
    3.347764648666373,        !- Vertex 3 Ycoordinate
    12.975,                   !- Vertex 3 Zcoordinate
    49.70423840309589,        !- Vertex 4 Xcoordinate
    3.347764648666373,        !- Vertex 4 Ycoordinate
    14.025;                   !- Vertex 4 Zcoordinate

FENESTRATIONSURFACE:DETAILED,
    Block Poly_57_Administration Storey 4 Wall 0012 window,    !- Name
    Window,                   !- Surface Type
    HSCWZ_Public&Industrial_1995_Win,    !- Construction Name
    Block Poly_57_Administration Storey 4 Wall 0012,    !- Building Surface Name
    ,                         !- Outside Boundary Condition Object
    autocalculate,            !- View Factor to Ground
    ,                         !- Frame and Divider Name
    1,                        !- Multiplier
    autocalculate,            !- Number of Vertices
    49.70991056779289,        !- Vertex 1 Xcoordinate
    3.3516180869177914,       !- Vertex 1 Ycoordinate
    14.025,                   !- Vertex 1 Zcoordinate
    49.70991056779289,        !- Vertex 2 Xcoordinate
    3.3516180869177914,       !- Vertex 2 Ycoordinate
    12.975,                   !- Vertex 2 Zcoordinate
    54.444225412966865,       !- Vertex 3 Xcoordinate
    8.488556601108517,        !- Vertex 3 Ycoordinate
    12.975,                   !- Vertex 3 Zcoordinate
    54.444225412966865,       !- Vertex 4 Xcoordinate
    8.488556601108517,        !- Vertex 4 Ycoordinate
    14.025;                   !- Vertex 4 Zcoordinate

FENESTRATIONSURFACE:DETAILED,
    Block Poly_57_Administration Storey 4 Wall 0013 window,    !- Name
    Window,                   !- Surface Type
    HSCWZ_Public&Industrial_1995_Win,    !- Construction Name
    Block Poly_57_Administration Storey 4 Wall 0013,    !- Building Surface Name
    ,                         !- Outside Boundary Condition Object
    autocalculate,            !- View Factor to Ground
    ,                         !- Frame and Divider Name
    1,                        !- Multiplier
    autocalculate,            !- Number of Vertices
    54.44861204257079,        !- Vertex 1 Xcoordinate
    8.49564411272225,         !- Vertex 1 Ycoordinate
    14.025,                   !- Vertex 1 Zcoordinate
    54.44861204257079,        !- Vertex 2 Xcoordinate
    8.49564411272225,         !- Vertex 2 Ycoordinate
    12.975,                   !- Vertex 2 Zcoordinate
    58.478783146028114,       !- Vertex 3 Xcoordinate
    17.519553802768467,       !- Vertex 3 Ycoordinate
    12.975,                   !- Vertex 3 Zcoordinate
    58.478783146028114,       !- Vertex 4 Xcoordinate
    17.519553802768467,       !- Vertex 4 Ycoordinate
    14.025;                   !- Vertex 4 Zcoordinate

FENESTRATIONSURFACE:DETAILED,
    Block Poly_57_Administration Storey 4 Wall 0014 window,    !- Name
    Window,                   !- Surface Type
    HSCWZ_Public&Industrial_1995_Win,    !- Construction Name
    Block Poly_57_Administration Storey 4 Wall 0014,    !- Building Surface Name
    ,                         !- Outside Boundary Condition Object
    autocalculate,            !- View Factor to Ground
    ,                         !- Frame and Divider Name
    1,                        !- Multiplier
    autocalculate,            !- Number of Vertices
    58.48049221426883,        !- Vertex 1 Xcoordinate
    17.52906409838586,        !- Vertex 1 Ycoordinate
    14.025,                   !- Vertex 1 Zcoordinate
    58.48049221426883,        !- Vertex 2 Xcoordinate
    17.52906409838586,        !- Vertex 2 Ycoordinate
    12.975,                   !- Vertex 2 Zcoordinate
    57.865039455758584,       !- Vertex 3 Xcoordinate
    27.506725051893156,       !- Vertex 3 Ycoordinate
    12.975,                   !- Vertex 3 Zcoordinate
    57.865039455758584,       !- Vertex 4 Xcoordinate
    27.506725051893156,       !- Vertex 4 Ycoordinate
    14.025;                   !- Vertex 4 Zcoordinate

FENESTRATIONSURFACE:DETAILED,
    Block Poly_57_Administration Storey 4 Wall 0015 window,    !- Name
    Window,                   !- Surface Type
    HSCWZ_Public&Industrial_1995_Win,    !- Construction Name
    Block Poly_57_Administration Storey 4 Wall 0015,    !- Building Surface Name
    ,                         !- Outside Boundary Condition Object
    autocalculate,            !- View Factor to Ground
    ,                         !- Frame and Divider Name
    1,                        !- Multiplier
    autocalculate,            !- Number of Vertices
    57.863742692922884,       !- Vertex 1 Xcoordinate
    27.51572474440001,        !- Vertex 1 Ycoordinate
    14.025,                   !- Vertex 1 Zcoordinate
    57.863742692922884,       !- Vertex 2 Xcoordinate
    27.51572474440001,        !- Vertex 2 Ycoordinate
    12.975,                   !- Vertex 2 Zcoordinate
    55.8882633057044,         !- Vertex 3 Xcoordinate
    35.51944941958971,        !- Vertex 3 Ycoordinate
    12.975,                   !- Vertex 3 Zcoordinate
    55.8882633057044,         !- Vertex 4 Xcoordinate
    35.51944941958971,        !- Vertex 4 Ycoordinate
    14.025;                   !- Vertex 4 Zcoordinate

FENESTRATIONSURFACE:DETAILED,
    Block Poly_57_Administration Storey 4 Wall 0016 window,    !- Name
    Window,                   !- Surface Type
    HSCWZ_Public&Industrial_1995_Win,    !- Construction Name
    Block Poly_57_Administration Storey 4 Wall 0016,    !- Building Surface Name
    ,                         !- Outside Boundary Condition Object
    autocalculate,            !- View Factor to Ground
    ,                         !- Frame and Divider Name
    1,                        !- Multiplier
    autocalculate,            !- Number of Vertices
    55.88397766980194,        !- Vertex 1 Xcoordinate
    35.5291024430641,         !- Vertex 1 Ycoordinate
    14.025,                   !- Vertex 1 Zcoordinate
    55.88397766980194,        !- Vertex 2 Xcoordinate
    35.5291024430641,         !- Vertex 2 Ycoordinate
    12.975,                   !- Vertex 2 Zcoordinate
    49.29675652390728,        !- Vertex 3 Xcoordinate
    46.812118669693824,       !- Vertex 3 Ycoordinate
    12.975,                   !- Vertex 3 Zcoordinate
    49.29675652390728,        !- Vertex 4 Xcoordinate
    46.812118669693824,       !- Vertex 4 Ycoordinate
    14.025;                   !- Vertex 4 Zcoordinate

FENESTRATIONSURFACE:DETAILED,
    Block Poly_57_Administration Storey 4 Wall 0017 window,    !- Name
    Window,                   !- Surface Type
    HSCWZ_Public&Industrial_1995_Win,    !- Construction Name
    Block Poly_57_Administration Storey 4 Wall 0017,    !- Building Surface Name
    ,                         !- Outside Boundary Condition Object
    autocalculate,            !- View Factor to Ground
    ,                         !- Frame and Divider Name
    1,                        !- Multiplier
    autocalculate,            !- Number of Vertices
    49.29139903931818,        !- Vertex 1 Xcoordinate
    46.82006875245413,        !- Vertex 1 Ycoordinate
    14.025,                   !- Vertex 1 Zcoordinate
    49.29139903931818,        !- Vertex 2 Xcoordinate
    46.82006875245413,        !- Vertex 2 Ycoordinate
    12.975,                   !- Vertex 2 Zcoordinate
    45.174365976195,          !- Vertex 3 Xcoordinate
    51.42131788091222,        !- Vertex 3 Ycoordinate
    12.975,                   !- Vertex 3 Zcoordinate
    45.174365976195,          !- Vertex 4 Xcoordinate
    51.42131788091222,        !- Vertex 4 Ycoordinate
    14.025;                   !- Vertex 4 Zcoordinate

FENESTRATIONSURFACE:DETAILED,
    Block Poly_57_Administration Storey 4 Wall 0018 window,    !- Name
    Window,                   !- Surface Type
    HSCWZ_Public&Industrial_1995_Win,    !- Construction Name
    Block Poly_57_Administration Storey 4 Wall 0018,    !- Building Surface Name
    ,                         !- Outside Boundary Condition Object
    autocalculate,            !- View Factor to Ground
    ,                         !- Frame and Divider Name
    1,                        !- Multiplier
    autocalculate,            !- Number of Vertices
    45.16804549694242,        !- Vertex 1 Xcoordinate
    51.425235082821686,       !- Vertex 1 Ycoordinate
    14.025,                   !- Vertex 1 Zcoordinate
    45.16804549694242,        !- Vertex 2 Xcoordinate
    51.425235082821686,       !- Vertex 2 Ycoordinate
    12.975,                   !- Vertex 2 Zcoordinate
    36.65676101341198,        !- Vertex 3 Xcoordinate
    54.65055536948354,        !- Vertex 3 Ycoordinate
    12.975,                   !- Vertex 3 Zcoordinate
    36.65676101341198,        !- Vertex 4 Xcoordinate
    54.65055536948354,        !- Vertex 4 Ycoordinate
    14.025;                   !- Vertex 4 Zcoordinate

FENESTRATIONSURFACE:DETAILED,
    Block Poly_57_Administration Storey 4 Wall 0019 window,    !- Name
    Window,                   !- Surface Type
    HSCWZ_Public&Industrial_1995_Win,    !- Construction Name
    Block Poly_57_Administration Storey 4 Wall 0019,    !- Building Surface Name
    ,                         !- Outside Boundary Condition Object
    autocalculate,            !- View Factor to Ground
    ,                         !- Frame and Divider Name
    1,                        !- Multiplier
    autocalculate,            !- Number of Vertices
    36.64897752178327,        !- Vertex 1 Xcoordinate
    54.65205464795139,        !- Vertex 1 Ycoordinate
    14.025,                   !- Vertex 1 Zcoordinate
    36.64897752178327,        !- Vertex 2 Xcoordinate
    54.65205464795139,        !- Vertex 2 Ycoordinate
    12.975,                   !- Vertex 2 Zcoordinate
    29.608845731150765,       !- Vertex 3 Xcoordinate
    54.42229274004791,        !- Vertex 3 Ycoordinate
    12.975,                   !- Vertex 3 Zcoordinate
    29.608845731150765,       !- Vertex 4 Xcoordinate
    54.42229274004791,        !- Vertex 4 Ycoordinate
    14.025;                   !- Vertex 4 Zcoordinate

FENESTRATIONSURFACE:DETAILED,
    Block Poly_57_Administration Storey 4 Wall 0020 window,    !- Name
    Window,                   !- Surface Type
    HSCWZ_Public&Industrial_1995_Win,    !- Construction Name
    Block Poly_57_Administration Storey 4 Wall 0020,    !- Building Surface Name
    ,                         !- Outside Boundary Condition Object
    autocalculate,            !- View Factor to Ground
    ,                         !- Frame and Divider Name
    1,                        !- Multiplier
    autocalculate,            !- Number of Vertices
    29.600970261007692,       !- Vertex 1 Xcoordinate
    54.42074432339356,        !- Vertex 1 Ycoordinate
    14.025,                   !- Vertex 1 Zcoordinate
    29.600970261007692,       !- Vertex 2 Xcoordinate
    54.42074432339356,        !- Vertex 2 Ycoordinate
    12.975,                   !- Vertex 2 Zcoordinate
    20.905912705779397,       !- Vertex 3 Xcoordinate
    51.55676975591271,        !- Vertex 3 Ycoordinate
    12.975,                   !- Vertex 3 Zcoordinate
    20.905912705779397,       !- Vertex 4 Xcoordinate
    51.55676975591271,        !- Vertex 4 Ycoordinate
    14.025;                   !- Vertex 4 Zcoordinate

FENESTRATIONSURFACE:DETAILED,
    Block Poly_57_Administration Storey 4 Wall 0021 window,    !- Name
    Window,                   !- Surface Type
    HSCWZ_Public&Industrial_1995_Win,    !- Construction Name
    Block Poly_57_Administration Storey 4 Wall 0021,    !- Building Surface Name
    ,                         !- Outside Boundary Condition Object
    autocalculate,            !- View Factor to Ground
    ,                         !- Frame and Divider Name
    1,                        !- Multiplier
    autocalculate,            !- Number of Vertices
    20.895895127728522,       !- Vertex 1 Xcoordinate
    51.55192631815514,        !- Vertex 1 Ycoordinate
    14.025,                   !- Vertex 1 Zcoordinate
    20.895895127728522,       !- Vertex 2 Xcoordinate
    51.55192631815514,        !- Vertex 2 Ycoordinate
    12.975,                   !- Vertex 2 Zcoordinate
    9.575831737313479,        !- Vertex 3 Xcoordinate
    44.738712245999366,       !- Vertex 3 Ycoordinate
    12.975,                   !- Vertex 3 Zcoordinate
    9.575831737313479,        !- Vertex 4 Xcoordinate
    44.738712245999366,       !- Vertex 4 Ycoordinate
    14.025;                   !- Vertex 4 Zcoordinate

PEOPLE,
    People_Block Poly_57_Administration Storey 0,    !- Name
    Block Poly_57_Administration Storey 0,    !- Zone or ZoneList or Space or SpaceList Name
    People_Schedule,          !- Number of People Schedule Name
    Area/Person,              !- Number of People Calculation Method
    ,                         !- Number of People
    ,                         !- People per Floor Area
    9,                        !- Floor Area per Person
    0.3,                      !- Fraction Radiant
    autocalculate,            !- Sensible Heat Fraction
    CN_GenericActivityLevel,    !- Activity Level Schedule Name
    3.82e-08,                 !- Carbon Dioxide Generation Rate
    No,                       !- Enable ASHRAE 55 Comfort Warnings
    ZoneAveraged,             !- Mean Radiant Temperature Calculation Type
    ,                         !- Surface NameAngle Factor List Name
    ,                         !- Work Efficiency Schedule Name
    ClothingInsulationSchedule,    !- Clothing Insulation Calculation Method
    ,                         !- Clothing Insulation Calculation Method Schedule Name
    ,                         !- Clothing Insulation Schedule Name
    ,                         !- Air Velocity Schedule Name
    ,                         !- Thermal Comfort Model 1 Type
    ,                         !- Thermal Comfort Model 2 Type
    ,                         !- Thermal Comfort Model 3 Type
    ,                         !- Thermal Comfort Model 4 Type
    ,                         !- Thermal Comfort Model 5 Type
    ,                         !- Thermal Comfort Model 6 Type
    ,                         !- Thermal Comfort Model 7 Type
    ,                         !- Ankle Level Air Velocity Schedule Name
    15.56,                    !- Cold Stress Temperature Threshold
    30;                       !- Heat Stress Temperature Threshold

PEOPLE,
    People_Block Poly_57_Administration Storey 1,    !- Name
    Block Poly_57_Administration Storey 1,    !- Zone or ZoneList or Space or SpaceList Name
    People_Schedule,          !- Number of People Schedule Name
    Area/Person,              !- Number of People Calculation Method
    ,                         !- Number of People
    ,                         !- People per Floor Area
    9,                        !- Floor Area per Person
    0.3,                      !- Fraction Radiant
    autocalculate,            !- Sensible Heat Fraction
    CN_GenericActivityLevel,    !- Activity Level Schedule Name
    3.82e-08,                 !- Carbon Dioxide Generation Rate
    No,                       !- Enable ASHRAE 55 Comfort Warnings
    ZoneAveraged,             !- Mean Radiant Temperature Calculation Type
    ,                         !- Surface NameAngle Factor List Name
    ,                         !- Work Efficiency Schedule Name
    ClothingInsulationSchedule,    !- Clothing Insulation Calculation Method
    ,                         !- Clothing Insulation Calculation Method Schedule Name
    ,                         !- Clothing Insulation Schedule Name
    ,                         !- Air Velocity Schedule Name
    ,                         !- Thermal Comfort Model 1 Type
    ,                         !- Thermal Comfort Model 2 Type
    ,                         !- Thermal Comfort Model 3 Type
    ,                         !- Thermal Comfort Model 4 Type
    ,                         !- Thermal Comfort Model 5 Type
    ,                         !- Thermal Comfort Model 6 Type
    ,                         !- Thermal Comfort Model 7 Type
    ,                         !- Ankle Level Air Velocity Schedule Name
    15.56,                    !- Cold Stress Temperature Threshold
    30;                       !- Heat Stress Temperature Threshold

PEOPLE,
    People_Block Poly_57_Administration Storey 2,    !- Name
    Block Poly_57_Administration Storey 2,    !- Zone or ZoneList or Space or SpaceList Name
    People_Schedule,          !- Number of People Schedule Name
    Area/Person,              !- Number of People Calculation Method
    ,                         !- Number of People
    ,                         !- People per Floor Area
    9,                        !- Floor Area per Person
    0.3,                      !- Fraction Radiant
    autocalculate,            !- Sensible Heat Fraction
    CN_GenericActivityLevel,    !- Activity Level Schedule Name
    3.82e-08,                 !- Carbon Dioxide Generation Rate
    No,                       !- Enable ASHRAE 55 Comfort Warnings
    ZoneAveraged,             !- Mean Radiant Temperature Calculation Type
    ,                         !- Surface NameAngle Factor List Name
    ,                         !- Work Efficiency Schedule Name
    ClothingInsulationSchedule,    !- Clothing Insulation Calculation Method
    ,                         !- Clothing Insulation Calculation Method Schedule Name
    ,                         !- Clothing Insulation Schedule Name
    ,                         !- Air Velocity Schedule Name
    ,                         !- Thermal Comfort Model 1 Type
    ,                         !- Thermal Comfort Model 2 Type
    ,                         !- Thermal Comfort Model 3 Type
    ,                         !- Thermal Comfort Model 4 Type
    ,                         !- Thermal Comfort Model 5 Type
    ,                         !- Thermal Comfort Model 6 Type
    ,                         !- Thermal Comfort Model 7 Type
    ,                         !- Ankle Level Air Velocity Schedule Name
    15.56,                    !- Cold Stress Temperature Threshold
    30;                       !- Heat Stress Temperature Threshold

PEOPLE,
    People_Block Poly_57_Administration Storey 3,    !- Name
    Block Poly_57_Administration Storey 3,    !- Zone or ZoneList or Space or SpaceList Name
    People_Schedule,          !- Number of People Schedule Name
    Area/Person,              !- Number of People Calculation Method
    ,                         !- Number of People
    ,                         !- People per Floor Area
    9,                        !- Floor Area per Person
    0.3,                      !- Fraction Radiant
    autocalculate,            !- Sensible Heat Fraction
    CN_GenericActivityLevel,    !- Activity Level Schedule Name
    3.82e-08,                 !- Carbon Dioxide Generation Rate
    No,                       !- Enable ASHRAE 55 Comfort Warnings
    ZoneAveraged,             !- Mean Radiant Temperature Calculation Type
    ,                         !- Surface NameAngle Factor List Name
    ,                         !- Work Efficiency Schedule Name
    ClothingInsulationSchedule,    !- Clothing Insulation Calculation Method
    ,                         !- Clothing Insulation Calculation Method Schedule Name
    ,                         !- Clothing Insulation Schedule Name
    ,                         !- Air Velocity Schedule Name
    ,                         !- Thermal Comfort Model 1 Type
    ,                         !- Thermal Comfort Model 2 Type
    ,                         !- Thermal Comfort Model 3 Type
    ,                         !- Thermal Comfort Model 4 Type
    ,                         !- Thermal Comfort Model 5 Type
    ,                         !- Thermal Comfort Model 6 Type
    ,                         !- Thermal Comfort Model 7 Type
    ,                         !- Ankle Level Air Velocity Schedule Name
    15.56,                    !- Cold Stress Temperature Threshold
    30;                       !- Heat Stress Temperature Threshold

PEOPLE,
    People_Block Poly_57_Administration Storey 4,    !- Name
    Block Poly_57_Administration Storey 4,    !- Zone or ZoneList or Space or SpaceList Name
    People_Schedule,          !- Number of People Schedule Name
    Area/Person,              !- Number of People Calculation Method
    ,                         !- Number of People
    ,                         !- People per Floor Area
    9,                        !- Floor Area per Person
    0.3,                      !- Fraction Radiant
    autocalculate,            !- Sensible Heat Fraction
    CN_GenericActivityLevel,    !- Activity Level Schedule Name
    3.82e-08,                 !- Carbon Dioxide Generation Rate
    No,                       !- Enable ASHRAE 55 Comfort Warnings
    ZoneAveraged,             !- Mean Radiant Temperature Calculation Type
    ,                         !- Surface NameAngle Factor List Name
    ,                         !- Work Efficiency Schedule Name
    ClothingInsulationSchedule,    !- Clothing Insulation Calculation Method
    ,                         !- Clothing Insulation Calculation Method Schedule Name
    ,                         !- Clothing Insulation Schedule Name
    ,                         !- Air Velocity Schedule Name
    ,                         !- Thermal Comfort Model 1 Type
    ,                         !- Thermal Comfort Model 2 Type
    ,                         !- Thermal Comfort Model 3 Type
    ,                         !- Thermal Comfort Model 4 Type
    ,                         !- Thermal Comfort Model 5 Type
    ,                         !- Thermal Comfort Model 6 Type
    ,                         !- Thermal Comfort Model 7 Type
    ,                         !- Ankle Level Air Velocity Schedule Name
    15.56,                    !- Cold Stress Temperature Threshold
    30;                       !- Heat Stress Temperature Threshold

LIGHTS,
    Lights_Block Poly_57_Administration Storey 0,    !- Name
    Block Poly_57_Administration Storey 0,    !- Zone or ZoneList or Space or SpaceList Name
    Lights_Schedule,          !- Schedule Name
    Watts/Area,               !- Design Level Calculation Method
    ,                         !- Lighting Level
    12,                       !- Watts per Zone Floor Area
    ,                         !- Watts per Person
    0,                        !- Return Air Fraction
    0,                        !- Fraction Radiant
    0,                        !- Fraction Visible
    1,                        !- Fraction Replaceable
    General,                  !- EndUse Subcategory
    No,                       !- Return Air Fraction Calculated from Plenum Temperature
    0,                        !- Return Air Fraction Function of Plenum Temperature Coefficient 1
    0;                        !- Return Air Fraction Function of Plenum Temperature Coefficient 2

LIGHTS,
    Lights_Block Poly_57_Administration Storey 1,    !- Name
    Block Poly_57_Administration Storey 1,    !- Zone or ZoneList or Space or SpaceList Name
    Lights_Schedule,          !- Schedule Name
    Watts/Area,               !- Design Level Calculation Method
    ,                         !- Lighting Level
    12,                       !- Watts per Zone Floor Area
    ,                         !- Watts per Person
    0,                        !- Return Air Fraction
    0,                        !- Fraction Radiant
    0,                        !- Fraction Visible
    1,                        !- Fraction Replaceable
    General,                  !- EndUse Subcategory
    No,                       !- Return Air Fraction Calculated from Plenum Temperature
    0,                        !- Return Air Fraction Function of Plenum Temperature Coefficient 1
    0;                        !- Return Air Fraction Function of Plenum Temperature Coefficient 2

LIGHTS,
    Lights_Block Poly_57_Administration Storey 2,    !- Name
    Block Poly_57_Administration Storey 2,    !- Zone or ZoneList or Space or SpaceList Name
    Lights_Schedule,          !- Schedule Name
    Watts/Area,               !- Design Level Calculation Method
    ,                         !- Lighting Level
    12,                       !- Watts per Zone Floor Area
    ,                         !- Watts per Person
    0,                        !- Return Air Fraction
    0,                        !- Fraction Radiant
    0,                        !- Fraction Visible
    1,                        !- Fraction Replaceable
    General,                  !- EndUse Subcategory
    No,                       !- Return Air Fraction Calculated from Plenum Temperature
    0,                        !- Return Air Fraction Function of Plenum Temperature Coefficient 1
    0;                        !- Return Air Fraction Function of Plenum Temperature Coefficient 2

LIGHTS,
    Lights_Block Poly_57_Administration Storey 3,    !- Name
    Block Poly_57_Administration Storey 3,    !- Zone or ZoneList or Space or SpaceList Name
    Lights_Schedule,          !- Schedule Name
    Watts/Area,               !- Design Level Calculation Method
    ,                         !- Lighting Level
    12,                       !- Watts per Zone Floor Area
    ,                         !- Watts per Person
    0,                        !- Return Air Fraction
    0,                        !- Fraction Radiant
    0,                        !- Fraction Visible
    1,                        !- Fraction Replaceable
    General,                  !- EndUse Subcategory
    No,                       !- Return Air Fraction Calculated from Plenum Temperature
    0,                        !- Return Air Fraction Function of Plenum Temperature Coefficient 1
    0;                        !- Return Air Fraction Function of Plenum Temperature Coefficient 2

LIGHTS,
    Lights_Block Poly_57_Administration Storey 4,    !- Name
    Block Poly_57_Administration Storey 4,    !- Zone or ZoneList or Space or SpaceList Name
    Lights_Schedule,          !- Schedule Name
    Watts/Area,               !- Design Level Calculation Method
    ,                         !- Lighting Level
    12,                       !- Watts per Zone Floor Area
    ,                         !- Watts per Person
    0,                        !- Return Air Fraction
    0,                        !- Fraction Radiant
    0,                        !- Fraction Visible
    1,                        !- Fraction Replaceable
    General,                  !- EndUse Subcategory
    No,                       !- Return Air Fraction Calculated from Plenum Temperature
    0,                        !- Return Air Fraction Function of Plenum Temperature Coefficient 1
    0;                        !- Return Air Fraction Function of Plenum Temperature Coefficient 2

ELECTRICEQUIPMENT,
    ElectricEquipment_Block Poly_57_Administration Storey 0,    !- Name
    Block Poly_57_Administration Storey 0,    !- Zone or ZoneList or Space or SpaceList Name
    ElectricEquipment_Schedule,    !- Schedule Name
    Watts/Area,               !- Design Level Calculation Method
    ,                         !- Design Level
    16,                       !- Watts per Zone Floor Area
    ,                         !- Watts per Person
    0,                        !- Fraction Latent
    0,                        !- Fraction Radiant
    0,                        !- Fraction Lost
    General;                  !- EndUse Subcategory

ELECTRICEQUIPMENT,
    ElectricEquipment_Block Poly_57_Administration Storey 1,    !- Name
    Block Poly_57_Administration Storey 1,    !- Zone or ZoneList or Space or SpaceList Name
    ElectricEquipment_Schedule,    !- Schedule Name
    Watts/Area,               !- Design Level Calculation Method
    ,                         !- Design Level
    16,                       !- Watts per Zone Floor Area
    ,                         !- Watts per Person
    0,                        !- Fraction Latent
    0,                        !- Fraction Radiant
    0,                        !- Fraction Lost
    General;                  !- EndUse Subcategory

ELECTRICEQUIPMENT,
    ElectricEquipment_Block Poly_57_Administration Storey 2,    !- Name
    Block Poly_57_Administration Storey 2,    !- Zone or ZoneList or Space or SpaceList Name
    ElectricEquipment_Schedule,    !- Schedule Name
    Watts/Area,               !- Design Level Calculation Method
    ,                         !- Design Level
    16,                       !- Watts per Zone Floor Area
    ,                         !- Watts per Person
    0,                        !- Fraction Latent
    0,                        !- Fraction Radiant
    0,                        !- Fraction Lost
    General;                  !- EndUse Subcategory

ELECTRICEQUIPMENT,
    ElectricEquipment_Block Poly_57_Administration Storey 3,    !- Name
    Block Poly_57_Administration Storey 3,    !- Zone or ZoneList or Space or SpaceList Name
    ElectricEquipment_Schedule,    !- Schedule Name
    Watts/Area,               !- Design Level Calculation Method
    ,                         !- Design Level
    16,                       !- Watts per Zone Floor Area
    ,                         !- Watts per Person
    0,                        !- Fraction Latent
    0,                        !- Fraction Radiant
    0,                        !- Fraction Lost
    General;                  !- EndUse Subcategory

ELECTRICEQUIPMENT,
    ElectricEquipment_Block Poly_57_Administration Storey 4,    !- Name
    Block Poly_57_Administration Storey 4,    !- Zone or ZoneList or Space or SpaceList Name
    ElectricEquipment_Schedule,    !- Schedule Name
    Watts/Area,               !- Design Level Calculation Method
    ,                         !- Design Level
    16,                       !- Watts per Zone Floor Area
    ,                         !- Watts per Person
    0,                        !- Fraction Latent
    0,                        !- Fraction Radiant
    0,                        !- Fraction Lost
    General;                  !- EndUse Subcategory

ZONEINFILTRATION:DESIGNFLOWRATE,
    Infil 1,                  !- Name
    Block Poly_57_Administration Storey 0,    !- Zone or ZoneList or Space or SpaceList Name
    AirEx_ConditionedTime_Schedule,    !- Schedule Name
    AirChanges/Hour,          !- Design Flow Rate Calculation Method
    ,                         !- Design Flow Rate
    ,                         !- Flow Rate per Floor Area
    ,                         !- Flow Rate per Exterior Surface Area
    1,                        !- Air Changes per Hour
    1,                        !- Constant Term Coefficient
    0,                        !- Temperature Term Coefficient
    0,                        !- Velocity Term Coefficient
    0;                        !- Velocity Squared Term Coefficient

ZONEINFILTRATION:DESIGNFLOWRATE,
    Infil 2,                  !- Name
    Block Poly_57_Administration Storey 1,    !- Zone or ZoneList or Space or SpaceList Name
    AirEx_ConditionedTime_Schedule,    !- Schedule Name
    AirChanges/Hour,          !- Design Flow Rate Calculation Method
    ,                         !- Design Flow Rate
    ,                         !- Flow Rate per Floor Area
    ,                         !- Flow Rate per Exterior Surface Area
    1,                        !- Air Changes per Hour
    1,                        !- Constant Term Coefficient
    0,                        !- Temperature Term Coefficient
    0,                        !- Velocity Term Coefficient
    0;                        !- Velocity Squared Term Coefficient

ZONEINFILTRATION:DESIGNFLOWRATE,
    Infil 3,                  !- Name
    Block Poly_57_Administration Storey 2,    !- Zone or ZoneList or Space or SpaceList Name
    AirEx_ConditionedTime_Schedule,    !- Schedule Name
    AirChanges/Hour,          !- Design Flow Rate Calculation Method
    ,                         !- Design Flow Rate
    ,                         !- Flow Rate per Floor Area
    ,                         !- Flow Rate per Exterior Surface Area
    1,                        !- Air Changes per Hour
    1,                        !- Constant Term Coefficient
    0,                        !- Temperature Term Coefficient
    0,                        !- Velocity Term Coefficient
    0;                        !- Velocity Squared Term Coefficient

ZONEINFILTRATION:DESIGNFLOWRATE,
    Infil 4,                  !- Name
    Block Poly_57_Administration Storey 3,    !- Zone or ZoneList or Space or SpaceList Name
    AirEx_ConditionedTime_Schedule,    !- Schedule Name
    AirChanges/Hour,          !- Design Flow Rate Calculation Method
    ,                         !- Design Flow Rate
    ,                         !- Flow Rate per Floor Area
    ,                         !- Flow Rate per Exterior Surface Area
    1,                        !- Air Changes per Hour
    1,                        !- Constant Term Coefficient
    0,                        !- Temperature Term Coefficient
    0,                        !- Velocity Term Coefficient
    0;                        !- Velocity Squared Term Coefficient

ZONEINFILTRATION:DESIGNFLOWRATE,
    Infil 5,                  !- Name
    Block Poly_57_Administration Storey 4,    !- Zone or ZoneList or Space or SpaceList Name
    AirEx_ConditionedTime_Schedule,    !- Schedule Name
    AirChanges/Hour,          !- Design Flow Rate Calculation Method
    ,                         !- Design Flow Rate
    ,                         !- Flow Rate per Floor Area
    ,                         !- Flow Rate per Exterior Surface Area
    1,                        !- Air Changes per Hour
    1,                        !- Constant Term Coefficient
    0,                        !- Temperature Term Coefficient
    0,                        !- Velocity Term Coefficient
    0;                        !- Velocity Squared Term Coefficient

HVACTEMPLATE:THERMOSTAT,
    HVACTemp,                 !- Name
    Heating_SP_Schedule,      !- Heating Setpoint Schedule Name
    ,                         !- Constant Heating Setpoint
    Cooling_SP_Schedule;      !- Cooling Setpoint Schedule Name

HVACTEMPLATE:ZONE:IDEALLOADSAIRSYSTEM,
    Block Poly_57_Administration Storey 0,    !- Zone Name
    HVACTemp,                 !- Template Thermostat Name
    HVAC_ConditionedTime_Schedule,    !- System Availability Schedule Name
    50,                       !- Maximum Heating Supply Air Temperature
    13,                       !- Minimum Cooling Supply Air Temperature
    0.0156,                   !- Maximum Heating Supply Air Humidity Ratio
    0.0077,                   !- Minimum Cooling Supply Air Humidity Ratio
    NoLimit,                  !- Heating Limit
    ,                         !- Maximum Heating Air Flow Rate
    ,                         !- Maximum Sensible Heating Capacity
    NoLimit,                  !- Cooling Limit
    ,                         !- Maximum Cooling Air Flow Rate
    ,                         !- Maximum Total Cooling Capacity
    Heating_Period_Schedule,    !- Heating Availability Schedule Name
    Cooling_Period_Schedule,    !- Cooling Availability Schedule Name
    ConstantSensibleHeatRatio,    !- Dehumidification Control Type
    0.7,                      !- Cooling Sensible Heat Ratio
    60,                       !- Dehumidification Setpoint
    None,                     !- Humidification Control Type
    30,                       !- Humidification Setpoint
    None,                     !- Outdoor Air Method
    0.00944,                  !- Outdoor Air Flow Rate per Person
    0,                        !- Outdoor Air Flow Rate per Zone Floor Area
    0,                        !- Outdoor Air Flow Rate per Zone
    ,                         !- Design Specification Outdoor Air Object Name
    None,                     !- Demand Controlled Ventilation Type
    NoEconomizer,             !- Outdoor Air Economizer Type
    None,                     !- Heat Recovery Type
    0.7,                      !- Sensible Heat Recovery Effectiveness
    0.65;                     !- Latent Heat Recovery Effectiveness

HVACTEMPLATE:ZONE:IDEALLOADSAIRSYSTEM,
    Block Poly_57_Administration Storey 1,    !- Zone Name
    HVACTemp,                 !- Template Thermostat Name
    HVAC_ConditionedTime_Schedule,    !- System Availability Schedule Name
    50,                       !- Maximum Heating Supply Air Temperature
    13,                       !- Minimum Cooling Supply Air Temperature
    0.0156,                   !- Maximum Heating Supply Air Humidity Ratio
    0.0077,                   !- Minimum Cooling Supply Air Humidity Ratio
    NoLimit,                  !- Heating Limit
    ,                         !- Maximum Heating Air Flow Rate
    ,                         !- Maximum Sensible Heating Capacity
    NoLimit,                  !- Cooling Limit
    ,                         !- Maximum Cooling Air Flow Rate
    ,                         !- Maximum Total Cooling Capacity
    Heating_Period_Schedule,    !- Heating Availability Schedule Name
    Cooling_Period_Schedule,    !- Cooling Availability Schedule Name
    ConstantSensibleHeatRatio,    !- Dehumidification Control Type
    0.7,                      !- Cooling Sensible Heat Ratio
    60,                       !- Dehumidification Setpoint
    None,                     !- Humidification Control Type
    30,                       !- Humidification Setpoint
    None,                     !- Outdoor Air Method
    0.00944,                  !- Outdoor Air Flow Rate per Person
    0,                        !- Outdoor Air Flow Rate per Zone Floor Area
    0,                        !- Outdoor Air Flow Rate per Zone
    ,                         !- Design Specification Outdoor Air Object Name
    None,                     !- Demand Controlled Ventilation Type
    NoEconomizer,             !- Outdoor Air Economizer Type
    None,                     !- Heat Recovery Type
    0.7,                      !- Sensible Heat Recovery Effectiveness
    0.65;                     !- Latent Heat Recovery Effectiveness

HVACTEMPLATE:ZONE:IDEALLOADSAIRSYSTEM,
    Block Poly_57_Administration Storey 2,    !- Zone Name
    HVACTemp,                 !- Template Thermostat Name
    HVAC_ConditionedTime_Schedule,    !- System Availability Schedule Name
    50,                       !- Maximum Heating Supply Air Temperature
    13,                       !- Minimum Cooling Supply Air Temperature
    0.0156,                   !- Maximum Heating Supply Air Humidity Ratio
    0.0077,                   !- Minimum Cooling Supply Air Humidity Ratio
    NoLimit,                  !- Heating Limit
    ,                         !- Maximum Heating Air Flow Rate
    ,                         !- Maximum Sensible Heating Capacity
    NoLimit,                  !- Cooling Limit
    ,                         !- Maximum Cooling Air Flow Rate
    ,                         !- Maximum Total Cooling Capacity
    Heating_Period_Schedule,    !- Heating Availability Schedule Name
    Cooling_Period_Schedule,    !- Cooling Availability Schedule Name
    ConstantSensibleHeatRatio,    !- Dehumidification Control Type
    0.7,                      !- Cooling Sensible Heat Ratio
    60,                       !- Dehumidification Setpoint
    None,                     !- Humidification Control Type
    30,                       !- Humidification Setpoint
    None,                     !- Outdoor Air Method
    0.00944,                  !- Outdoor Air Flow Rate per Person
    0,                        !- Outdoor Air Flow Rate per Zone Floor Area
    0,                        !- Outdoor Air Flow Rate per Zone
    ,                         !- Design Specification Outdoor Air Object Name
    None,                     !- Demand Controlled Ventilation Type
    NoEconomizer,             !- Outdoor Air Economizer Type
    None,                     !- Heat Recovery Type
    0.7,                      !- Sensible Heat Recovery Effectiveness
    0.65;                     !- Latent Heat Recovery Effectiveness

HVACTEMPLATE:ZONE:IDEALLOADSAIRSYSTEM,
    Block Poly_57_Administration Storey 3,    !- Zone Name
    HVACTemp,                 !- Template Thermostat Name
    HVAC_ConditionedTime_Schedule,    !- System Availability Schedule Name
    50,                       !- Maximum Heating Supply Air Temperature
    13,                       !- Minimum Cooling Supply Air Temperature
    0.0156,                   !- Maximum Heating Supply Air Humidity Ratio
    0.0077,                   !- Minimum Cooling Supply Air Humidity Ratio
    NoLimit,                  !- Heating Limit
    ,                         !- Maximum Heating Air Flow Rate
    ,                         !- Maximum Sensible Heating Capacity
    NoLimit,                  !- Cooling Limit
    ,                         !- Maximum Cooling Air Flow Rate
    ,                         !- Maximum Total Cooling Capacity
    Heating_Period_Schedule,    !- Heating Availability Schedule Name
    Cooling_Period_Schedule,    !- Cooling Availability Schedule Name
    ConstantSensibleHeatRatio,    !- Dehumidification Control Type
    0.7,                      !- Cooling Sensible Heat Ratio
    60,                       !- Dehumidification Setpoint
    None,                     !- Humidification Control Type
    30,                       !- Humidification Setpoint
    None,                     !- Outdoor Air Method
    0.00944,                  !- Outdoor Air Flow Rate per Person
    0,                        !- Outdoor Air Flow Rate per Zone Floor Area
    0,                        !- Outdoor Air Flow Rate per Zone
    ,                         !- Design Specification Outdoor Air Object Name
    None,                     !- Demand Controlled Ventilation Type
    NoEconomizer,             !- Outdoor Air Economizer Type
    None,                     !- Heat Recovery Type
    0.7,                      !- Sensible Heat Recovery Effectiveness
    0.65;                     !- Latent Heat Recovery Effectiveness

HVACTEMPLATE:ZONE:IDEALLOADSAIRSYSTEM,
    Block Poly_57_Administration Storey 4,    !- Zone Name
    HVACTemp,                 !- Template Thermostat Name
    HVAC_ConditionedTime_Schedule,    !- System Availability Schedule Name
    50,                       !- Maximum Heating Supply Air Temperature
    13,                       !- Minimum Cooling Supply Air Temperature
    0.0156,                   !- Maximum Heating Supply Air Humidity Ratio
    0.0077,                   !- Minimum Cooling Supply Air Humidity Ratio
    NoLimit,                  !- Heating Limit
    ,                         !- Maximum Heating Air Flow Rate
    ,                         !- Maximum Sensible Heating Capacity
    NoLimit,                  !- Cooling Limit
    ,                         !- Maximum Cooling Air Flow Rate
    ,                         !- Maximum Total Cooling Capacity
    Heating_Period_Schedule,    !- Heating Availability Schedule Name
    Cooling_Period_Schedule,    !- Cooling Availability Schedule Name
    ConstantSensibleHeatRatio,    !- Dehumidification Control Type
    0.7,                      !- Cooling Sensible Heat Ratio
    60,                       !- Dehumidification Setpoint
    None,                     !- Humidification Control Type
    30,                       !- Humidification Setpoint
    None,                     !- Outdoor Air Method
    0.00944,                  !- Outdoor Air Flow Rate per Person
    0,                        !- Outdoor Air Flow Rate per Zone Floor Area
    0,                        !- Outdoor Air Flow Rate per Zone
    ,                         !- Design Specification Outdoor Air Object Name
    None,                     !- Demand Controlled Ventilation Type
    NoEconomizer,             !- Outdoor Air Economizer Type
    None,                     !- Heat Recovery Type
    0.7,                      !- Sensible Heat Recovery Effectiveness
    0.65;                     !- Latent Heat Recovery Effectiveness

OUTPUT:VARIABLEDICTIONARY,
    regular,                  !- Key Field
    Unsorted;                 !- Sort Option

OUTPUT:CONSTRUCTIONS,
    Constructions,            !- Details Type 1
    Constructions;            !- Details Type 2

OUTPUT:TABLE:SUMMARYREPORTS,
    AllSummary;               !- Report 1 Name

OUTPUTCONTROL:TABLE:STYLE,
    Comma,                    !- Column Separator
    JtoKWH;                   !- Unit Conversion

OUTPUT:VARIABLE,
    *,                        !- Key Value
    Zone Ideal Loads Supply Air Total Heating Rate,    !- Variable Name
    Hourly;                   !- Reporting Frequency

OUTPUT:VARIABLE,
    *,                        !- Key Value
    Zone Ideal Loads Supply Air Total Cooling Rate,    !- Variable Name
    Hourly;                   !- Reporting Frequency

OUTPUT:VARIABLE,
    *,                        !- Key Value
    Zone Ideal Loads Zone Total Heating Rate,    !- Variable Name
    Hourly;                   !- Reporting Frequency

OUTPUT:VARIABLE,
    *,                        !- Key Value
    Zone Ideal Loads Zone Total Cooling Rate,    !- Variable Name
    Hourly;                   !- Reporting Frequency

OUTPUT:VARIABLE,
    *,                        !- Key Value
    Zone Air Temperature,     !- Variable Name
    Hourly;                   !- Reporting Frequency

OUTPUT:METER:METERFILEONLY,
    DistrictCooling:Facility,    !- Key Name
    Hourly;                   !- Reporting Frequency

OUTPUT:METER:METERFILEONLY,
    DistrictHeatingWater:Facility,    !- Key Name
    Hourly;                   !- Reporting Frequency

OUTPUT:METER:METERFILEONLY,
    Electricity:Facility,     !- Key Name
    Hourly;                   !- Reporting Frequency

OUTPUT:METER:METERFILEONLY,
    Electricity:Building,     !- Key Name
    Hourly;                   !- Reporting Frequency

OUTPUT:SQLITE,
    SimpleAndTabular,         !- Option Type
    UseOutputControlTableStyle;    !- Unit Conversion for Tabular Data